# 
# Keywords:
# 
opti conp qok  
# 
# Options:
# 
# File written after  654 cycles
cell
  11.902100  11.902100  29.692000  90.000000  90.000000 120.000000
fractional  1   
Ge    core 0.6996000 0.3757000 0.0338899 4.00000000 1.00000 0.00000             
Ge    core 0.6357552 0.3205953 0.3630072 4.00000000 1.00000 0.00000             
Ge    core 0.6805746 0.3129917 0.6986400 4.00000000 1.00000 0.00000             
Ge    core 0.3238153 0.6098982 0.5425756 4.00000000 1.00000 0.00000             
Ge    core 0.3543810 0.6718722 0.8691254 4.00000000 1.00000 0.00000             
Ge    core 0.3307056 0.6885510 0.2085633 4.00000000 1.00000 0.00000             
Ge    core 0.3322751 0.6576933 0.3092199 4.00000000 1.00000 0.00000             
Ge    core 0.2924476 0.6348786 0.9680782 4.00000000 1.00000 0.00000             
Ge    core 0.3249183 0.6806396 0.6404121 4.00000000 1.00000 0.00000             
Ge    core 0.6655228 0.3323176 0.7984965 4.00000000 1.00000 0.00000             
Ge    core 0.7125671 0.3413058 0.4604982 4.00000000 1.00000 0.00000             
Ge    core 0.6777475 0.3133471 0.1322725 4.00000000 1.00000 0.00000             
Ge    core 0.5288454 0.4117700 0.9632365 4.00000000 1.00000 0.00000             
Ge    core 0.6028595 0.1006499 0.3026716 4.00000000 1.00000 0.00000             
Ge    core 0.8941557 0.4497745 0.6253305 4.00000000 1.00000 0.00000             
Ge    core 0.4991869 0.5789868 0.4744069 4.00000000 1.00000 0.00000             
Ge    core 0.4024139 0.9072016 0.8160918 4.00000000 1.00000 0.00000             
Ge    core 0.1097180 0.5438574 0.1384103 4.00000000 1.00000 0.00000             
Ge    core 0.4352433 0.5302837 0.3699132 4.00000000 1.00000 0.00000             
Ge    core 0.0962082 0.6056294 0.0369686 4.00000000 1.00000 0.00000             
Ge    core 0.4506972 0.9073966 0.7111533 4.00000000 1.00000 0.00000             
Ge    core 0.5694039 0.4650537 0.8574606 4.00000000 1.00000 0.00000             
Ge    core 0.9241059 0.3885937 0.5255224 4.00000000 1.00000 0.00000             
Ge    core 0.5421341 0.0810398 0.1987745 4.00000000 1.00000 0.00000             
Ge    core 0.2725233 0.3964335 0.8418452 4.00000000 1.00000 0.00000             
Ge    core 0.6257746 0.8651963 0.1959040 4.00000000 1.00000 0.00000             
Ge    core 0.1275489 0.6821547 0.5053700 4.00000000 1.00000 0.00000             
Ge    core 0.7258217 0.6042039 0.3435591 4.00000000 1.00000 0.00000             
Ge    core 0.3743832 0.1260430 0.7020603 4.00000000 1.00000 0.00000             
Ge    core 0.9121621 0.3159330 0.0062487 4.00000000 1.00000 0.00000             
Ge    core 0.4396813 0.2894279 0.4835141 4.00000000 1.00000 0.00000             
Ge    core 0.8823869 0.6084863 0.1487009 4.00000000 1.00000 0.00000             
Ge    core 0.6959665 0.1092538 0.8305274 4.00000000 1.00000 0.00000             
Ge    core 0.5741612 0.6947891 0.9791461 4.00000000 1.00000 0.00000             
Ge    core 0.1121458 0.3838010 0.6517311 4.00000000 1.00000 0.00000             
Ge    core 0.3139879 0.9020910 0.3260450 4.00000000 1.00000 0.00000             
Ge    core 0.2457487 0.3523203 0.9474962 4.00000000 1.00000 0.00000             
Ge    core 0.6353033 0.8608820 0.3019812 4.00000000 1.00000 0.00000             
Ge    core 0.1089053 0.7426143 0.6096559 4.00000000 1.00000 0.00000             
Ge    core 0.7749665 0.6330653 0.4491288 4.00000000 1.00000 0.00000             
Ge    core 0.3637254 0.1461917 0.8089711 4.00000000 1.00000 0.00000             
Ge    core 0.9033849 0.2575578 0.1116556 4.00000000 1.00000 0.00000             
Ge    core 0.3520136 0.2383635 0.3806448 4.00000000 1.00000 0.00000             
Ge    core 0.8762327 0.6743049 0.0472280 4.00000000 1.00000 0.00000             
Ge    core 0.7444134 0.0978463 0.7248585 4.00000000 1.00000 0.00000             
Ge    core 0.6416853 0.7527931 0.8757264 4.00000000 1.00000 0.00000             
Ge    core 0.1356607 0.3153602 0.5518370 4.00000000 1.00000 0.00000             
Ge    core 0.2531250 0.8953777 0.2212467 4.00000000 1.00000 0.00000             
Ge    core 0.9719108 0.1300130 0.9510744 4.00000000 1.00000 0.00000             
Ge    core 0.8774500 0.8503714 0.2875706 4.00000000 1.00000 0.00000             
Ge    core 0.1372384 0.0049013 0.6327081 4.00000000 1.00000 0.00000             
Ge    core 0.0508520 0.8591482 0.4547737 4.00000000 1.00000 0.00000             
Ge    core 0.1224051 0.1526483 0.7866817 4.00000000 1.00000 0.00000             
Ge    core 0.8667844 0.9873137 0.1281981 4.00000000 1.00000 0.00000             
Ge    core 0.1112872 0.9736554 0.3580293 4.00000000 1.00000 0.00000             
Ge    core 0.8233974 0.9004000 0.0250611 4.00000000 1.00000 0.00000             
Ge    core 0.0050510 0.1102156 0.6925306 4.00000000 1.00000 0.00000             
Ge    core 0.8875348 0.0200180 0.8545972 4.00000000 1.00000 0.00000             
Ge    core 0.1896082 0.0878478 0.5297160 4.00000000 1.00000 0.00000             
Ge    core 0.9870801 0.8783905 0.1914131 4.00000000 1.00000 0.00000             
O1    core 0.8579416 0.9951169 0.9790297 1.73395700 1.00000 0.00000             
O1    core 0.0343516 0.9275361 0.3087199 1.73395700 1.00000 0.00000             
O1    core 0.0160551 0.0394034 0.6438732 1.73395700 1.00000 0.00000             
O1    core 0.1522722 0.0011995 0.4814386 1.73395700 1.00000 0.00000             
O1    core 0.9632745 0.0728384 0.8049964 1.73395700 1.00000 0.00000             
O1    core 0.9846061 0.9505222 0.1421034 1.73395700 1.00000 0.00000             
O1    core 0.3077776 0.5403172 0.3462577 1.73395700 1.00000 0.00000             
O1    core 0.4240303 0.7706151 0.6827191 1.73395700 1.00000 0.00000             
O1    core 0.2323371 0.6982119 0.0056233 1.73395700 1.00000 0.00000             
O1    core 0.6931001 0.4680184 0.8270791 1.73395700 1.00000 0.00000             
O1    core 0.5642801 0.2149093 0.1698008 1.73395700 1.00000 0.00000             
O1    core 0.7966793 0.2887791 0.4920324 1.73395700 1.00000 0.00000             
O1    core 0.5675260 0.3235259 0.9960918 1.73395700 1.00000 0.00000             
O1    core 0.7542952 0.4103190 0.6524951 1.73395700 1.00000 0.00000             
O1    core 0.6928481 0.2392031 0.3287631 1.73395700 1.00000 0.00000             
O1    core 0.4684782 0.6641240 0.5115740 1.73395700 1.00000 0.00000             
O1    core 0.2398628 0.5704447 0.1679209 1.73395700 1.00000 0.00000             
O1    core 0.3035572 0.7711788 0.8424637 1.73395700 1.00000 0.00000             
O1    core 0.1219745 0.2135707 0.9738467 1.73395700 1.00000 0.00000             
O1    core 0.7788426 0.8752834 0.3230482 1.73395700 1.00000 0.00000             
O1    core 0.0823081 0.8461716 0.6429871 1.73395700 1.00000 0.00000             
O1    core 0.9034452 0.7607871 0.4777367 1.73395700 1.00000 0.00000             
O1    core 0.2161742 0.1289751 0.8250784 1.73395700 1.00000 0.00000             
O1    core 0.9213441 0.1436099 0.1420187 1.73395700 1.00000 0.00000             
O1    core 0.1968144 0.1376266 0.3615869 1.73395700 1.00000 0.00000             
O1    core 0.9119412 0.8239526 0.0270582 1.73395700 1.00000 0.00000             
O1    core 0.8446145 0.0479080 0.7015151 1.73395700 1.00000 0.00000             
O1    core 0.7923460 0.8576804 0.8532620 1.73395700 1.00000 0.00000             
O1    core 0.1023356 0.1647918 0.5340300 1.73395700 1.00000 0.00000             
O1    core 0.1474842 0.9400196 0.2007119 1.73395700 1.00000 0.00000             
O1    core 0.9120331 0.9139090 0.2345514 1.73395700 1.00000 0.00000             
O1    core 0.1664711 0.9952613 0.5762395 1.73395700 1.00000 0.00000             
O1    core 0.9907702 0.0775554 0.8996770 1.73395700 1.00000 0.00000             
O1    core 0.0909383 0.0837522 0.7340118 1.73395700 1.00000 0.00000             
O1    core 0.8433720 0.9926197 0.0717559 1.73395700 1.00000 0.00000             
O1    core 0.0152405 0.9015666 0.4038338 1.73395700 1.00000 0.00000             
O1    core 0.9161709 0.2381766 0.9588093 1.73395700 1.00000 0.00000             
O1    core 0.8190636 0.6887049 0.2978134 1.73395700 1.00000 0.00000             
O1    core 0.2676227 0.1207455 0.6610567 1.73395700 1.00000 0.00000             
O1    core 0.1285439 0.7699134 0.4595836 1.73395700 1.00000 0.00000             
O1    core 0.1774804 0.3136167 0.7956321 1.73395700 1.00000 0.00000             
O1    core 0.7355054 0.8700228 0.1569702 1.73395700 1.00000 0.00000             
O1    core 0.2292644 0.9294773 0.3665629 1.73395700 1.00000 0.00000             
O1    core 0.6674392 0.7776573 0.0252063 1.73395700 1.00000 0.00000             
O1    core 0.0818694 0.2765463 0.6948452 1.73395700 1.00000 0.00000             
O1    core 0.7860582 0.0817056 0.8685790 1.73395700 1.00000 0.00000             
O1    core 0.3486421 0.2051043 0.5294631 1.73395700 1.00000 0.00000             
O1    core 0.9016418 0.7128609 0.1921361 1.73395700 1.00000 0.00000             
O1    core 0.3107243 0.5942859 0.2563868 1.73395700 1.00000 0.00000             
O1    core 0.3996671 0.6569995 0.5954742 1.73395700 1.00000 0.00000             
O1    core 0.2574110 0.6584319 0.9150407 1.73395700 1.00000 0.00000             
O1    core 0.6970153 0.4041424 0.7452756 1.73395700 1.00000 0.00000             
O1    core 0.6114056 0.3330339 0.0840759 1.73395700 1.00000 0.00000             
O1    core 0.7337232 0.3171909 0.4061048 1.73395700 1.00000 0.00000             
O1    core 0.3676883 0.3187437 0.9466872 1.73395700 1.00000 0.00000             
O1    core 0.6889113 0.0224632 0.2949299 1.73395700 1.00000 0.00000             
O1    core 0.0073947 0.6044364 0.6392020 1.73395700 1.00000 0.00000             
O1    core 0.6563275 0.6711659 0.4546248 1.73395700 1.00000 0.00000             
O1    core 0.3165274 0.9855230 0.8069110 1.73395700 1.00000 0.00000             
O1    core 0.9882374 0.3869943 0.1468758 1.73395700 1.00000 0.00000             
O1    core 0.3907863 0.3770770 0.3523797 1.73395700 1.00000 0.00000             
O1    core 0.0329887 0.7024919 0.0458961 1.73395700 1.00000 0.00000             
O1    core 0.6030625 0.0193661 0.6937765 1.73395700 1.00000 0.00000             
O1    core 0.5997673 0.6187079 0.8447104 1.73395700 1.00000 0.00000             
O1    core 0.9840048 0.2924331 0.5412878 1.73395700 1.00000 0.00000             
O1    core 0.3860248 0.9693444 0.1855691 1.73395700 1.00000 0.00000             
O1    core 0.7532126 0.2797047 0.0106452 1.73395700 1.00000 0.00000             
O1    core 0.6865253 0.4512807 0.3278680 1.73395700 1.00000 0.00000             
O1    core 0.5245328 0.2266970 0.6788060 1.73395700 1.00000 0.00000             
O1    core 0.2811272 0.7097370 0.5131476 1.73395700 1.00000 0.00000             
O1    core 0.2981102 0.5480058 0.8304573 1.73395700 1.00000 0.00000             
O1    core 0.4738233 0.7509424 0.1780550 1.73395700 1.00000 0.00000             
O1    core 0.2499654 0.7347704 0.3233122 1.73395700 1.00000 0.00000             
O1    core 0.4571668 0.7353610 0.9777601 1.73395700 1.00000 0.00000             
O1    core 0.2200076 0.5369977 0.6680685 1.73395700 1.00000 0.00000             
O1    core 0.7561891 0.2735613 0.8234922 1.73395700 1.00000 0.00000             
O1    core 0.5534737 0.2441211 0.4774329 1.73395700 1.00000 0.00000             
O1    core 0.7691316 0.4544065 0.1629308 1.73395700 1.00000 0.00000             
O1    core 0.7647881 0.5435431 0.0173715 1.73395700 1.00000 0.00000             
O1    core 0.4684763 0.2017122 0.3631502 1.73395700 1.00000 0.00000             
O1    core 0.7857309 0.2539007 0.7114523 1.73395700 1.00000 0.00000             
O1    core 0.2613259 0.4444479 0.5248965 1.73395700 1.00000 0.00000             
O1    core 0.5224765 0.7916385 0.8654084 1.73395700 1.00000 0.00000             
O1    core 0.2131151 0.7378351 0.2129795 1.73395700 1.00000 0.00000             
O1    core 0.4979359 0.7562415 0.3280214 1.73395700 1.00000 0.00000             
O1    core 0.2470876 0.4739103 0.9793811 1.73395700 1.00000 0.00000             
O1    core 0.2646014 0.7777888 0.6207191 1.73395700 1.00000 0.00000             
O1    core 0.5072102 0.2554603 0.8303659 1.73395700 1.00000 0.00000             
O1    core 0.7715230 0.5028421 0.4753242 1.73395700 1.00000 0.00000             
O1    core 0.7442835 0.2174017 0.1173790 1.73395700 1.00000 0.00000             
O1    core 0.1894091 0.3461112 0.8928925 1.73395700 1.00000 0.00000             
O1    core 0.6545055 0.8150703 0.2468894 1.73395700 1.00000 0.00000             
O1    core 0.0779108 0.7338767 0.5529643 1.73395700 1.00000 0.00000             
O1    core 0.8172607 0.6438796 0.3926885 1.73395700 1.00000 0.00000             
O1    core 0.3493754 0.1846603 0.7509443 1.73395700 1.00000 0.00000             
O1    core 0.9521601 0.2677400 0.0565745 1.73395700 1.00000 0.00000             
O1    core 0.3340901 0.2401842 0.4383926 1.73395700 1.00000 0.00000             
O1    core 0.8322584 0.6640744 0.1033710 1.73395700 1.00000 0.00000             
O1    core 0.7315870 0.0558515 0.7801335 1.73395700 1.00000 0.00000             
O1    core 0.6741061 0.7511957 0.9325541 1.73395700 1.00000 0.00000             
O1    core 0.1697000 0.3269375 0.6087523 1.73395700 1.00000 0.00000             
O1    core 0.2726663 0.9475642 0.2761145 1.73395700 1.00000 0.00000             
O1    core 0.5219225 0.5363866 0.9909369 1.73395700 1.00000 0.00000             
O1    core 0.4750547 0.9807438 0.3352720 1.73395700 1.00000 0.00000             
O1    core 0.9595817 0.3531633 0.6372804 1.73395700 1.00000 0.00000             
O1    core 0.5049373 0.4484228 0.4974363 1.73395700 1.00000 0.00000             
O1    core 0.5373571 0.0274214 0.8449443 1.73395700 1.00000 0.00000             
O1    core 0.0388810 0.6394244 0.1431967 1.73395700 1.00000 0.00000             
O1    core 0.5927370 0.6248909 0.3503661 1.73395700 1.00000 0.00000             
O1    core 0.0070693 0.4799232 0.9990496 1.73395700 1.00000 0.00000             
O1    core 0.3480567 0.9684291 0.7030765 1.73395700 1.00000 0.00000             
O1    core 0.4048557 0.3746726 0.8418486 1.73395700 1.00000 0.00000             
O1    core 0.0296959 0.5201689 0.4935100 1.73395700 1.00000 0.00000             
O1    core 0.6449328 0.0203956 0.1914317 1.73395700 1.00000 0.00000             
O1    core 0.5479249 0.1299412 0.2534481 1.73395700 1.00000 0.00000             
O1    core 0.8629655 0.4379947 0.5687597 1.73395700 1.00000 0.00000             
O1    core 0.6100510 0.4598707 0.9129218 1.73395700 1.00000 0.00000             
O1    core 0.4517771 0.8699961 0.7662568 1.73395700 1.00000 0.00000             
O1    core 0.1482388 0.5550879 0.0817926 1.73395700 1.00000 0.00000             
O1    core 0.4069075 0.5375478 0.4260946 1.73395700 1.00000 0.00000             
F     core 0.4390614 0.8424393 0.2524118 0.56000000 1.00000 0.00000             
F     core 0.1567133 0.5406710 0.5758246 0.56000000 1.00000 0.00000             
F     core 0.4163738 0.5709905 0.9074262 0.56000000 1.00000 0.00000             
F     core 0.5677974 0.1643013 0.7636797 0.56000000 1.00000 0.00000             
F     core 0.8596681 0.4524607 0.0753191 0.56000000 1.00000 0.00000             
F     core 0.5862850 0.4176624 0.4090321 0.56000000 1.00000 0.00000             
O1    shel 0.8638055 0.9976848 0.9806795 -3.7339570 1.00000 0.00000             
O1    shel 0.0297723 0.9259059 0.3114883 -3.7339570 1.00000 0.00000             
O1    shel 0.0241325 0.0422565 0.6466481 -3.7339570 1.00000 0.00000             
O1    shel 0.1473851 0.9970531 0.4832894 -3.7339570 1.00000 0.00000             
O1    shel 0.9684438 0.0743126 0.8078205 -3.7339570 1.00000 0.00000             
O1    shel 0.9760578 0.9476597 0.1447664 -3.7339570 1.00000 0.00000             
O1    shel 0.3185677 0.5491083 0.3449421 -3.7339570 1.00000 0.00000             
O1    shel 0.4179930 0.7734738 0.6813901 -3.7339570 1.00000 0.00000             
O1    shel 0.2268464 0.6863507 0.0050297 -3.7339570 1.00000 0.00000             
O1    shel 0.6820579 0.4575208 0.8271847 -3.7339570 1.00000 0.00000             
O1    shel 0.5717186 0.2127715 0.1689309 -3.7339570 1.00000 0.00000             
O1    shel 0.7999638 0.3003678 0.4921696 -3.7339570 1.00000 0.00000             
O1    shel 0.5723683 0.3344434 0.9956091 -3.7339570 1.00000 0.00000             
O1    shel 0.7601120 0.4064488 0.6536841 -3.7339570 1.00000 0.00000             
O1    shel 0.6809664 0.2318448 0.3285613 -3.7339570 1.00000 0.00000             
O1    shel 0.4620195 0.6532956 0.5103226 -3.7339570 1.00000 0.00000             
O1    shel 0.2347146 0.5758834 0.1681174 -3.7339570 1.00000 0.00000             
O1    shel 0.3156889 0.7770357 0.8417621 -3.7339570 1.00000 0.00000             
O1    shel 0.1181844 0.2159421 0.9704356 -3.7339570 1.00000 0.00000             
O1    shel 0.7765556 0.8723083 0.3191478 -3.7339570 1.00000 0.00000             
O1    shel 0.0885424 0.8516038 0.6398115 -3.7339570 1.00000 0.00000             
O1    shel 0.9065244 0.7600353 0.4740766 -3.7339570 1.00000 0.00000             
O1    shel 0.2196551 0.1321729 0.8212583 -3.7339570 1.00000 0.00000             
O1    shel 0.9157046 0.1390253 0.1387490 -3.7339570 1.00000 0.00000             
O1    shel 0.2013101 0.1319644 0.3627172 -3.7339570 1.00000 0.00000             
O1    shel 0.9024529 0.8189404 0.0283622 -3.7339570 1.00000 0.00000             
O1    shel 0.8502697 0.0566314 0.7025109 -3.7339570 1.00000 0.00000             
O1    shel 0.7893675 0.8635246 0.8550175 -3.7339570 1.00000 0.00000             
O1    shel 0.1117558 0.1699574 0.5350278 -3.7339570 1.00000 0.00000             
O1    shel 0.1426670 0.9314837 0.2015719 -3.7339570 1.00000 0.00000             
O1    shel 0.9146209 0.9067824 0.2354868 -3.7339570 1.00000 0.00000             
O1    shel 0.1662230 0.0028062 0.5766857 -3.7339570 1.00000 0.00000             
O1    shel 0.9815822 0.0771378 0.9001890 -3.7339570 1.00000 0.00000             
O1    shel 0.0872978 0.0904089 0.7348563 -3.7339570 1.00000 0.00000             
O1    shel 0.8435765 0.9852894 0.0725561 -3.7339570 1.00000 0.00000             
O1    shel 0.0251479 0.9039491 0.4041163 -3.7339570 1.00000 0.00000             
O1    shel 0.9198863 0.2366133 0.9618847 -3.7339570 1.00000 0.00000             
O1    shel 0.8168021 0.6947433 0.3002998 -3.7339570 1.00000 0.00000             
O1    shel 0.2647701 0.1120651 0.6617018 -3.7339570 1.00000 0.00000             
O1    shel 0.1229462 0.7697336 0.4626047 -3.7339570 1.00000 0.00000             
O1    shel 0.1797664 0.3070780 0.7980924 -3.7339570 1.00000 0.00000             
O1    shel 0.7374082 0.8783667 0.1576734 -3.7339570 1.00000 0.00000             
O1    shel 0.2278706 0.9304378 0.3630194 -3.7339570 1.00000 0.00000             
O1    shel 0.6730771 0.7812873 0.0219548 -3.7339570 1.00000 0.00000             
O1    shel 0.0784552 0.2723400 0.6915529 -3.7339570 1.00000 0.00000             
O1    shel 0.7859361 0.0797612 0.8648429 -3.7339570 1.00000 0.00000             
O1    shel 0.3430207 0.2022606 0.5261655 -3.7339570 1.00000 0.00000             
O1    shel 0.9066907 0.7178177 0.1890225 -3.7339570 1.00000 0.00000             
O1    shel 0.3139089 0.6056177 0.2572109 -3.7339570 1.00000 0.00000             
O1    shel 0.3887683 0.6555198 0.5954885 -3.7339570 1.00000 0.00000             
O1    shel 0.2668719 0.6571150 0.9161676 -3.7339570 1.00000 0.00000             
O1    shel 0.6934931 0.3921900 0.7453246 -3.7339570 1.00000 0.00000             
O1    shel 0.6225879 0.3346388 0.0843691 -3.7339570 1.00000 0.00000             
O1    shel 0.7252760 0.3196840 0.4076863 -3.7339570 1.00000 0.00000             
O1    shel 0.3691688 0.3278926 0.9478511 -3.7339570 1.00000 0.00000             
O1    shel 0.6783506 0.0162892 0.2959765 -3.7339570 1.00000 0.00000             
O1    shel 0.0062186 0.6025188 0.6359277 -3.7339570 1.00000 0.00000             
O1    shel 0.6544520 0.6616115 0.4555570 -3.7339570 1.00000 0.00000             
O1    shel 0.3266695 0.9920454 0.8076974 -3.7339570 1.00000 0.00000             
O1    shel 0.9907998 0.3891142 0.1436230 -3.7339570 1.00000 0.00000             
O1    shel 0.3914807 0.3779997 0.3559442 -3.7339570 1.00000 0.00000             
O1    shel 0.0266499 0.6923123 0.0453201 -3.7339570 1.00000 0.00000             
O1    shel 0.6015639 0.0167244 0.6972729 -3.7339570 1.00000 0.00000             
O1    shel 0.6005677 0.6181317 0.8481731 -3.7339570 1.00000 0.00000             
O1    shel 0.9906699 0.3021302 0.5408607 -3.7339570 1.00000 0.00000             
O1    shel 0.3886962 0.9723733 0.1890522 -3.7339570 1.00000 0.00000             
O1    shel 0.7608481 0.2896413 0.0122039 -3.7339570 1.00000 0.00000             
O1    shel 0.6855156 0.4532924 0.3317950 -3.7339570 1.00000 0.00000             
O1    shel 0.5251800 0.2256762 0.6820496 -3.7339570 1.00000 0.00000             
O1    shel 0.2721409 0.7007489 0.5146698 -3.7339570 1.00000 0.00000             
O1    shel 0.3004546 0.5455818 0.8342295 -3.7339570 1.00000 0.00000             
O1    shel 0.4751070 0.7552370 0.1816018 -3.7339570 1.00000 0.00000             
O1    shel 0.2606711 0.7400798 0.3223570 -3.7339570 1.00000 0.00000             
O1    shel 0.4550958 0.7250718 0.9770911 -3.7339570 1.00000 0.00000             
O1    shel 0.2186312 0.5347897 0.6647819 -3.7339570 1.00000 0.00000             
O1    shel 0.7453520 0.2661434 0.8220985 -3.7339570 1.00000 0.00000             
O1    shel 0.5559714 0.2545104 0.4766287 -3.7339570 1.00000 0.00000             
O1    shel 0.7715968 0.4564940 0.1596058 -3.7339570 1.00000 0.00000             
O1    shel 0.7694568 0.5440312 0.0204419 -3.7339570 1.00000 0.00000             
O1    shel 0.4705487 0.2113936 0.3643050 -3.7339570 1.00000 0.00000             
O1    shel 0.7759265 0.2463172 0.7116605 -3.7339570 1.00000 0.00000             
O1    shel 0.2559676 0.4446129 0.5277584 -3.7339570 1.00000 0.00000             
O1    shel 0.5209075 0.7821020 0.8662690 -3.7339570 1.00000 0.00000             
O1    shel 0.2232946 0.7464717 0.2133486 -3.7339570 1.00000 0.00000             
O1    shel 0.5000004 0.7591095 0.3248716 -3.7339570 1.00000 0.00000             
O1    shel 0.2501184 0.4761800 0.9763233 -3.7339570 1.00000 0.00000             
O1    shel 0.2573546 0.7685938 0.6212079 -3.7339570 1.00000 0.00000             
O1    shel 0.5027718 0.2513799 0.8274568 -3.7339570 1.00000 0.00000             
O1    shel 0.7677314 0.5012242 0.4723890 -3.7339570 1.00000 0.00000             
O1    shel 0.7514199 0.2268482 0.1179220 -3.7339570 1.00000 0.00000             
O1    shel 0.1986078 0.3498744 0.8931813 -3.7339570 1.00000 0.00000             
O1    shel 0.6516828 0.8213189 0.2467291 -3.7339570 1.00000 0.00000             
O1    shel 0.0834477 0.7311613 0.5540164 -3.7339570 1.00000 0.00000             
O1    shel 0.8081531 0.6403436 0.3932342 -3.7339570 1.00000 0.00000             
O1    shel 0.3516601 0.1782276 0.7504946 -3.7339570 1.00000 0.00000             
O1    shel 0.9459821 0.2702635 0.0572019 -3.7339570 1.00000 0.00000             
O1    shel 0.3429718 0.2436723 0.4375513 -3.7339570 1.00000 0.00000             
O1    shel 0.8387213 0.6609188 0.1026115 -3.7339570 1.00000 0.00000             
O1    shel 0.7302476 0.0625346 0.7792162 -3.7339570 1.00000 0.00000             
O1    shel 0.6647107 0.7472208 0.9319331 -3.7339570 1.00000 0.00000             
O1    shel 0.1634411 0.3300426 0.6076678 -3.7339570 1.00000 0.00000             
O1    shel 0.2742066 0.9405596 0.2756442 -3.7339570 1.00000 0.00000             
O1    shel 0.5262125 0.5397612 0.9880546 -3.7339570 1.00000 0.00000             
O1    shel 0.4702507 0.9818039 0.3324473 -3.7339570 1.00000 0.00000             
O1    shel 0.9659088 0.3624567 0.6373958 -3.7339570 1.00000 0.00000             
O1    shel 0.4996921 0.4454125 0.4946848 -3.7339570 1.00000 0.00000             
O1    shel 0.5409035 0.0261129 0.8418717 -3.7339570 1.00000 0.00000             
O1    shel 0.0324819 0.6303860 0.1431918 -3.7339570 1.00000 0.00000             
O1    shel 0.5911567 0.6169690 0.3512011 -3.7339570 1.00000 0.00000             
O1    shel 0.0060317 0.4762533 0.0021345 -3.7339570 1.00000 0.00000             
O1    shel 0.3571875 0.9747123 0.7035941 -3.7339570 1.00000 0.00000             
O1    shel 0.4056348 0.3815082 0.8427567 -3.7339570 1.00000 0.00000             
O1    shel 0.0293527 0.5224974 0.4967117 -3.7339570 1.00000 0.00000             
O1    shel 0.6361198 0.0144791 0.1922918 -3.7339570 1.00000 0.00000             
O1    shel 0.5514677 0.1238432 0.2531420 -3.7339570 1.00000 0.00000             
O1    shel 0.8698431 0.4353129 0.5698294 -3.7339570 1.00000 0.00000             
O1    shel 0.6010375 0.4566977 0.9127096 -3.7339570 1.00000 0.00000             
O1    shel 0.4483375 0.8757515 0.7655152 -3.7339570 1.00000 0.00000             
O1    shel 0.1413839 0.5580655 0.0823533 -3.7339570 1.00000 0.00000             
O1    shel 0.4158431 0.5400065 0.4254522 -3.7339570 1.00000 0.00000             
F     shel 0.4355863 0.8364814 0.2512594 -1.5600000 1.00000 0.00000             
F     shel 0.1643724 0.5433792 0.5744609 -1.5600000 1.00000 0.00000             
F     shel 0.4136732 0.5748055 0.9062607 -1.5600000 1.00000 0.00000             
F     shel 0.5722377 0.1721496 0.7646863 -1.5600000 1.00000 0.00000             
F     shel 0.8537267 0.4500151 0.0740301 -1.5600000 1.00000 0.00000             
F     shel 0.5884012 0.4138762 0.4076850 -1.5600000 1.00000 0.00000             
species  10
Si     core    4.000000                  
O1     core    1.733957                  
O1     shel   -3.733957                  
O2     core    0.870733                  
O2     shel   -2.870733                  
O3     core    1.330431                  
O3     shel   -3.330431                  
F      core    0.560000                  
F      shel   -1.560000                  
Ge     core    4.000000                  
buck     
Si    core O1    shel  1315.24780     0.317759  10.14112      0.00 16.00
buck     
Si    core O2    shel  1315.24780     0.317759  10.14112      0.00 16.00
buck     
Si    core O3    shel  1315.24780     0.317759  10.14112      0.00 16.00
buck     
Ge    core O1    shel  1497.39960     0.325646  16.80860      0.00 16.00
buck     
Ge    core O2    shel  1497.39960     0.325646  16.80860      0.00 16.00
buck     
Ge    core O3    shel  1497.39960     0.325646  16.80860      0.00 16.00
buck     
O1    shel O1    shel  22764.0000     0.149000  10.93704      0.00 16.00
buck     
O1    shel O2    shel  22764.0000     0.149000  10.93704      0.00 16.00
buck     
O1    shel O3    shel  22764.0000     0.149000  10.93704      0.00 16.00
buck     
O2    shel O2    shel  22764.0000     0.149000  10.93704      0.00 16.00
buck     
O2    shel O3    shel  22764.0000     0.149000  10.93704      0.00 16.00
buck     
O3    shel O3    shel  22764.0000     0.149000  10.93704      0.00 16.00
buck     
Si    core F     shel  976.828870     0.282000  0.000000      0.00 16.00
buck     
Ge    core F     shel  681.472880     0.320000  0.000000      0.00 16.00
buck     
F     shel F     shel  540.397610     0.262490  0.000000      0.00 16.00
buck     
O1    shel F     shel  1675.00000     0.268000  0.000000      0.00 16.00
buck     
O2    shel F     shel  1675.00000     0.268000  0.000000      0.00 16.00
buck     
O3    shel F     shel  1675.00000     0.268000  0.000000      0.00 16.00
spring
O2     75.969800    
spring
O3     128.14279    
spring
O1     180.31577    
spring
F      33.452757    
three       regular  
Si    core O1    shel O1    shel 1.2614      109.47000 &
  0.000  1.900  0.000  1.900  0.000  3.500
three       regular  
Si    core O1    shel O2    shel 1.2614      109.47000 &
  0.000  1.900  0.000  1.900  0.000  3.500
three       regular  
Si    core O2    shel O2    shel 1.2614      109.47000 &
  0.000  1.900  0.000  1.900  0.000  3.500
cutp     16.00000    1.00000
maxcyc opt     5000
dump every      1 out.res                                                     
output cif out.cif                                                     
