single conv nosym qok
cell
 11.90210  11.90210  29.69200  90.00000  90.00000 120.00000
fractional
 Si  core  0.699599981      0.375699997       3.38900015E-02
 Ge  core  0.624300003      0.323900014      0.367223412    
 Si  core  0.676100016      0.300399989      0.700556695    
 Si  core  0.300399989      0.624300003      0.533890009    
 Ge  core  0.375699997      0.676100016      0.867223322    
 Si  core  0.323900014      0.699599981      0.200556695    
 Ge  core  0.375699997      0.699599981      0.299443305    
 Ge  core  0.323900014      0.624300003      0.966109991    
 Si  core  0.300399989      0.676100016      0.632776678    
 Ge  core  0.624300003      0.300399989      0.799443305    
 Ge  core  0.676100016      0.375699997      0.466109991    
 Si  core  0.699599981      0.323900014      0.132776707    
 Ge  core  0.530300021      0.413399994      0.966870010    
 Ge  core  0.586600006      0.116899997      0.300203294    
 Si  core  0.883099973      0.469700009      0.633536696    
 Ge  core  0.469700009      0.586600006      0.466870099    
 Si  core  0.413399994      0.883099973      0.800203323    
 Si  core  0.116899997      0.530300021      0.133536696    
 Ge  core  0.413399994      0.530300021      0.366463304    
 Si  core  0.116899997      0.586600006       3.31300013E-02
 Si  core  0.469700009      0.883099973      0.699796677    
 Ge  core  0.586600006      0.469700009      0.866463304    
 Si  core  0.883099973      0.413399994      0.533129990    
 Si  core  0.530300021      0.116899997      0.199796706    
 Ge  core  0.298799992      0.394300014      0.851189971    
 Ge  core  0.605700016      0.904500008      0.184523299    
 Si  core   9.54999998E-02  0.701200008      0.517856598    
 Ge  core  0.701200008      0.605700016      0.351190001    
 Si  core  0.394300014       9.54999998E-02  0.684523284    
 Si  core  0.904500008      0.298799992       1.78565998E-02
 Ge  core  0.394300014      0.298799992      0.482143402    
 Si  core  0.904500008      0.605700016      0.148809999    
 Si  core  0.701200008       9.54999998E-02  0.815476716    
 Ge  core  0.605700016      0.701200008      0.982143283    
 Si  core   9.54999998E-02  0.394300014      0.648810029    
 Si  core  0.298799992      0.904500008      0.315476686    
 Ge  core  0.248500004      0.334899992      0.952099979    
 Ge  core  0.665099978      0.913600028      0.285433292    
 Si  core   8.64000022E-02  0.751500010      0.618766725    
 Ge  core  0.751500010      0.665099978      0.452100009    
 Si  core  0.334899992       8.64000022E-02  0.785433292    
 Ge  core  0.913600028      0.248500004      0.118766703    
 Ge  core  0.334899992      0.248500004      0.381233305    
 Ge  core  0.913600028      0.665099978       4.78999987E-02
 Si  core  0.751500010       8.64000022E-02  0.714566708    
 Ge  core  0.665099978      0.751500010      0.881233275    
 Si  core   8.64000022E-02  0.334899992      0.547900021    
 Ge  core  0.248500004      0.913600028      0.214566693    
 Si  core  0.970200002      0.122900002      0.966970026    
 Si  core  0.877099991      0.847299993      0.300303310    
 Si  core  0.152700007       2.97999997E-02  0.633636713    
 Si  core   2.97999997E-02  0.877099991      0.466969997    
 Si  core  0.122900002      0.152700007      0.800303280    
 Si  core  0.847299993      0.970200002      0.133636698    
 Si  core  0.122900002      0.970200002      0.366363287    
 Si  core  0.847299993      0.877099991       3.30299996E-02
 Si  core   2.97999997E-02  0.152700007      0.699696720    
 Si  core  0.877099991       2.97999997E-02  0.866363287    
 Si  core  0.152700007      0.122900002      0.533029974    
 Si  core  0.970200002      0.847299993      0.199696705    
species 6
Na     core    1.000000
Sr     core    2.000000
Al     core    3.000000
Si     core    4.000000
O2     core    0.869020
O2     shel   -2.869020
buck Na core O2 shel  1226.84000  0.306500  0.000000 0.00 10.00
buck Na core Na core  7895.40000  0.170900  0.000000 0.00 10.00
buck Sr core O2 shel  1952.39000  0.336850 19.22000  0.00 10.00
buck Al core O2 shel  1460.30000  0.299120  0.000000 0.00 10.00
buck Si core O2 shel  1283.90700  0.320520 10.66158  0.00 10.00
buck O2 shel O2 shel 22764.0000   0.149000 27.87900  0.00 12.00
spring
O2 74.920000
three regular Si core O2 shel O2 shel 2.0972 109.47000 &
  0.000  1.800  0.000  1.800  0.000  3.200
three regular Al core O2 shel O2 shel 2.0972 109.47000 &
  0.000  1.800  0.000  1.800  0.000  3.200
cutp     16.00000    1.00000
switch_min rfo   gnorm     0.001000
dump every 1     out.res
output cif out.cif
