single conv nosym qok
cell
 11.90210  11.90210  29.69200  90.00000  90.00000 120.00000
fractional
 Ge  core  0.699599981      0.375699997       3.38900015E-02
 Ge  core  0.624300003      0.323900014      0.367223412    
 Ge  core  0.676100016      0.300399989      0.700556695    
 Ge  core  0.300399989      0.624300003      0.533890009    
 Ge  core  0.375699997      0.676100016      0.867223322    
 Ge  core  0.323900014      0.699599981      0.200556695    
 Ge  core  0.375699997      0.699599981      0.299443305    
 Ge  core  0.323900014      0.624300003      0.966109991    
 Ge  core  0.300399989      0.676100016      0.632776678    
 Ge  core  0.624300003      0.300399989      0.799443305    
 Ge  core  0.676100016      0.375699997      0.466109991    
 Ge  core  0.699599981      0.323900014      0.132776707    
 Ge  core  0.530300021      0.413399994      0.966870010    
 Ge  core  0.586600006      0.116899997      0.300203294    
 Ge  core  0.883099973      0.469700009      0.633536696    
 Ge  core  0.469700009      0.586600006      0.466870099    
 Ge  core  0.413399994      0.883099973      0.800203323    
 Ge  core  0.116899997      0.530300021      0.133536696    
 Ge  core  0.413399994      0.530300021      0.366463304    
 Ge  core  0.116899997      0.586600006       3.31300013E-02
 Ge  core  0.469700009      0.883099973      0.699796677    
 Ge  core  0.586600006      0.469700009      0.866463304    
 Ge  core  0.883099973      0.413399994      0.533129990    
 Ge  core  0.530300021      0.116899997      0.199796706    
 Ge  core  0.298799992      0.394300014      0.851189971    
 Ge  core  0.605700016      0.904500008      0.184523299    
 Ge  core   9.54999998E-02  0.701200008      0.517856598    
 Ge  core  0.701200008      0.605700016      0.351190001    
 Ge  core  0.394300014       9.54999998E-02  0.684523284    
 Ge  core  0.904500008      0.298799992       1.78565998E-02
 Ge  core  0.394300014      0.298799992      0.482143402    
 Ge  core  0.904500008      0.605700016      0.148809999    
 Ge  core  0.701200008       9.54999998E-02  0.815476716    
 Ge  core  0.605700016      0.701200008      0.982143283    
 Ge  core   9.54999998E-02  0.394300014      0.648810029    
 Ge  core  0.298799992      0.904500008      0.315476686    
 Ge  core  0.248500004      0.334899992      0.952099979    
 Ge  core  0.665099978      0.913600028      0.285433292    
 Ge  core   8.64000022E-02  0.751500010      0.618766725    
 Ge  core  0.751500010      0.665099978      0.452100009    
 Ge  core  0.334899992       8.64000022E-02  0.785433292    
 Ge  core  0.913600028      0.248500004      0.118766703    
 Ge  core  0.334899992      0.248500004      0.381233305    
 Ge  core  0.913600028      0.665099978       4.78999987E-02
 Ge  core  0.751500010       8.64000022E-02  0.714566708    
 Ge  core  0.665099978      0.751500010      0.881233275    
 Ge  core   8.64000022E-02  0.334899992      0.547900021    
 Ge  core  0.248500004      0.913600028      0.214566693    
 Ge  core  0.970200002      0.122900002      0.966970026    
 Si  core  0.877099991      0.847299993      0.300303310    
 Ge  core  0.152700007       2.97999997E-02  0.633636713    
 Si  core   2.97999997E-02  0.877099991      0.466969997    
 Ge  core  0.122900002      0.152700007      0.800303280    
 Si  core  0.847299993      0.970200002      0.133636698    
 Ge  core  0.122900002      0.970200002      0.366363287    
 Si  core  0.847299993      0.877099991       3.30299996E-02
 Si  core   2.97999997E-02  0.152700007      0.699696720    
 Si  core  0.877099991       2.97999997E-02  0.866363287    
 Si  core  0.152700007      0.122900002      0.533029974    
 Ge  core  0.970200002      0.847299993      0.199696705    
O    core    0.9240000    0.0000000    0.0000000
O    core    0.0000000    0.9240000    0.3333333
O    core    0.0760000    0.0760000    0.6666667
O    core    0.0760000    0.0000000    0.5000000
O    core    0.0000000    0.0760000    0.8333333
O    core    0.9240000    0.9240000    0.1666667
O    core    0.3364000    0.5810000    0.3325700
O    core    0.4190000    0.7554001    0.6659033
O    core    0.2446000    0.6636000    0.9992367
O    core    0.6636000    0.4190000    0.8325700
O    core    0.5810000    0.2446000    0.1659033
O    core    0.7554001    0.3364000    0.4992366
O    core    0.5810000    0.3364000    0.0007634
O    core    0.7554001    0.4190000    0.6674300
O    core    0.6636000    0.2446000    0.3340967
O    core    0.4190000    0.6636000    0.5007633
O    core    0.2446000    0.5810000    0.1674300
O    core    0.3364000    0.7554001    0.8340967
O    core    0.1311000    0.2142000    0.9718400
O    core    0.7858000    0.9169000    0.3051734
O    core    0.0831000    0.8689000    0.6385067
O    core    0.8689000    0.7858000    0.4718400
O    core    0.2142000    0.0831000    0.8051734
O    core    0.9169000    0.1311000    0.1385067
O    core    0.2142000    0.1311000    0.3614933
O    core    0.9169000    0.7858000    0.0281600
O    core    0.8689000    0.0831000    0.6948267
O    core    0.7858000    0.8689000    0.8614933
O    core    0.0831000    0.2142000    0.5281600
O    core    0.1311000    0.9169000    0.1948267
O    core    0.9288000    0.8576000    0.2500000
O    core    0.1424000    0.0712000    0.5833334
O    core    0.9288000    0.0712000    0.9166667
O    core    0.0712000    0.1424000    0.7500000
O    core    0.8576000    0.9288000    0.0833333
O    core    0.0712000    0.9288000    0.4166667
O    core    0.8982000    0.2036000    0.9786500
O    core    0.7964000    0.6946000    0.3119833
O    core    0.3054000    0.1018000    0.6453166
O    core    0.1018000    0.7964000    0.4786500
O    core    0.2036000    0.3054000    0.8119833
O    core    0.6946000    0.8982000    0.1453166
O    core    0.2036000    0.8982000    0.3546834
O    core    0.6946000    0.7964000    0.0213500
O    core    0.1018000    0.3054000    0.6880167
O    core    0.7964000    0.1018000    0.8546833
O    core    0.3054000    0.2036000    0.5213500
O    core    0.8982000    0.6946000    0.1880167
O    core    0.3187000    0.6376000    0.2500000
O    core    0.3624000    0.6811000    0.5833334
O    core    0.3189000    0.6813000    0.9166667
O    core    0.6813000    0.3624000    0.7500000
O    core    0.6376000    0.3189000    0.0833333
O    core    0.6811000    0.3187000    0.4166667
O    core    0.3703000    0.3263000    0.9689800
O    core    0.6737000    0.0440000    0.3023133
O    core    0.9560000    0.6297000    0.6356467
O    core    0.6297000    0.6737000    0.4689801
O    core    0.3263000    0.9560000    0.8023133
O    core    0.0440000    0.3703000    0.1356467
O    core    0.3263000    0.3703000    0.3643533
O    core    0.0440000    0.6737000    0.0310200
O    core    0.6297000    0.9560000    0.6976867
O    core    0.6737000    0.6297000    0.8643533
O    core    0.9560000    0.3263000    0.5310200
O    core    0.3703000    0.0440000    0.1976867
O    core    0.7694000    0.3002000    0.0113500
O    core    0.6998000    0.4692000    0.3446833
O    core    0.5308000    0.2306000    0.6780167
O    core    0.2306000    0.6998000    0.5113500
O    core    0.3002000    0.5308000    0.8446833
O    core    0.4692000    0.7694000    0.1780167
O    core    0.3002000    0.7694000    0.3219833
O    core    0.4692000    0.6998000    0.9886500
O    core    0.2306000    0.5308000    0.6553167
O    core    0.6998000    0.2306000    0.8219833
O    core    0.5308000    0.3002000    0.4886500
O    core    0.7694000    0.4692000    0.1553167
O    core    0.7877000    0.5291000    0.0309600
O    core    0.4709000    0.2586000    0.3642933
O    core    0.7414000    0.2123000    0.6976267
O    core    0.2123000    0.4709000    0.5309600
O    core    0.5291000    0.7414000    0.8642933
O    core    0.2586000    0.7877000    0.1976267
O    core    0.5291000    0.7877000    0.3023733
O    core    0.2586000    0.4709000    0.9690400
O    core    0.2123000    0.7414000    0.6357067
O    core    0.4709000    0.2123000    0.8023733
O    core    0.7414000    0.5291000    0.4690400
O    core    0.7877000    0.2586000    0.1357067
O    core    0.2338000    0.3225000    0.8986700
O    core    0.6775000    0.9113000    0.2320033
O    core    0.0887000    0.7662000    0.5653367
O    core    0.7662000    0.6775000    0.3986700
O    core    0.3225000    0.0887000    0.7320033
O    core    0.9113000    0.2338000    0.0653367
O    core    0.3225000    0.2338000    0.4346633
O    core    0.9113000    0.6775000    0.1013300
O    core    0.7662000    0.0887000    0.7679967
O    core    0.6775000    0.7662000    0.9346633
O    core    0.0887000    0.3225000    0.6013300
O    core    0.2338000    0.9113000    0.2679967
O    core    0.5859000    0.5592000    0.9883400
O    core    0.4408000    0.0267000    0.3216734
O    core    0.9733000    0.4141000    0.6550066
O    core    0.4141000    0.4408000    0.4883400
O    core    0.5592000    0.9733000    0.8216734
O    core    0.0267000    0.5859000    0.1550066
O    core    0.5592000    0.5859000    0.3449934
O    core    0.0267000    0.4408000    0.0116600
O    core    0.4141000    0.9733000    0.6783267
O    core    0.4408000    0.4141000    0.8449933
O    core    0.9733000    0.5592000    0.5116600
O    core    0.5859000    0.0267000    0.1783267
O    core    0.5856000    0.1713000    0.2500000
O    core    0.8287000    0.4143000    0.5833334
O    core    0.5857000    0.4144000    0.9166667
O    core    0.4144000    0.8287000    0.7500000
O    core    0.1713000    0.5857000    0.0833333
O    core    0.4143000    0.5856000    0.4166667
F    core    0.4510000    0.9020000    0.2500000
F    core    0.0980000    0.5490000    0.5833334
F    core    0.4510000    0.5490000    0.9166667
F    core    0.5490000    0.0980000    0.7500000
F    core    0.9020000    0.4510000    0.0833333
F    core    0.5490000    0.4510000    0.4166667
species                                                                              
Si    core  4.00000                                                                  
O2    core  0.870733                                                                 
O2    shel -2.870733                                                                 
O3    core  1.330431                                                                 
O3    shel -3.330431                                                                 
O1    core  1.733957                                                                 
O1    shel -3.733957                                                                 
F     core  0.56                                                                     
F     shel -1.56                                                                     
Ge    core  4.0                                                                      
buckingham                                                                           
Si core    O1 shel     1315.2478 0.317759 10.141118 0.0 16.0                         
Si core    O2 shel     1315.2478 0.317759 10.141118 0.0 16.0                         
Si core    O3 shel     1315.2478 0.317759 10.141118 0.0 16.0                         
Ge core    O1 shel     1497.3996 0.325646 16.808599 0.0 16.0                         
Ge core    O2 shel     1497.3996 0.325646 16.808599 0.0 16.0                         
Ge core    O3 shel     1497.3996 0.325646 16.808599 0.0 16.0                         
O1 shel    O1 shel    22764.0000 0.149000 10.937044 0.0 16.0                         
O1 shel    O2 shel    22764.0000 0.149000 10.937044 0.0 16.0                         
O1 shel    O3 shel    22764.0000 0.149000 10.937044 0.0 16.0                         
O2 shel    O2 shel    22764.0000 0.149000 10.937044 0.0 16.0                         
O2 shel    O3 shel    22764.0000 0.149000 10.937044 0.0 16.0                         
O3 shel    O3 shel    22764.0000 0.149000 10.937044 0.0 16.0                         
Si core     F shel     976.82887 0.282000 0.0       0.0 16.0                         
Ge core     F shel     681.47288 0.320000 0.0       0.0 16.0                         
F  shel     F shel     540.39761 0.262490 0.0       0.0 16.0                         
O1 shel     F shel    1675.00000 0.268000 0.0       0.0 16.0                         
O2 shel     F shel    1675.00000 0.268000 0.0       0.0 16.0                         
O3 shel     F shel    1675.00000 0.268000 0.0       0.0 16.0                         
spring                                                                               
O1  180.315770                                                                       
O2   75.96980                                                                        
O3  128.1427                                                                         
F    33.452757                                                                       
three                                                                                
Si core O1 shel O1 shel 1.2614 109.47 1.9 1.9 3.5                                    
Si core O1 shel O2 shel 1.2614 109.47 1.9 1.9 3.5                                    
Si core O2 shel O2 shel 1.2614 109.47 1.9 1.9 3.5                                    
cutp             16.0 1.0                                                            
cuts              0.8                                                                
dump every 1     out.res                                                             
 cutp 16.0 1.0
 switch rfo gnorm 0.001
 stepmx 0.01
output xtl c0001   
output arc c0001   
