opti conv qok
stepmx 0.0103
cell
  11.88896  12.01691  29.41907  90.02434  89.92905 119.46805
fractional
Si   core    0.69960   0.37570   0.03389
Ge   core    0.61504   0.32416   0.36381
Si   core    0.68131   0.29288   0.69970
Si   core    0.27802   0.60416   0.53660
Si   core    0.38745   0.66451   0.86568
Si   core    0.31344   0.70376   0.19447
Si   core    0.36939   0.70422   0.29503
Si   core    0.31451   0.62634   0.96104
Si   core    0.31410   0.67475   0.63229
Si   core    0.62582   0.29574   0.79993
Ge   core    0.67805   0.37170   0.46584
Si   core    0.68201   0.32076   0.12973
Si   core    0.53670   0.42376   0.96748
Si   core    0.57527   0.11502   0.29674
Si   core    0.89652   0.46906   0.63676
Si   core    0.45255   0.57787   0.46801
Si   core    0.42360   0.87576   0.80255
Si   core    0.09983   0.52981   0.12952
Si   core    0.40041   0.53271   0.36293
Si   core    0.09692   0.57896   0.02583
Si   core    0.47829   0.88432   0.69916
Si   core    0.58778   0.47327   0.86321
Si   core    0.89429   0.41347   0.53378
Si   core    0.51729   0.11073   0.19485
Si   core    0.30257   0.39963   0.84637
Si   core    0.58964   0.90367   0.17869
Si   core    0.09888   0.69433   0.51563
Ge   core    0.69385   0.60323   0.34589
Si   core    0.40594   0.09235   0.68433
Si   core    0.88727   0.29678   0.01194
Si   core    0.38879   0.29246   0.48016
Si   core    0.88285   0.60062   0.14233
Si   core    0.70355   0.09514   0.81360
Si   core    0.59684   0.70644   0.97622
Si   core    0.11180   0.39632   0.64836
Si   core    0.29218   0.90556   0.30990
Si   core    0.25253   0.34608   0.94862
Si   core    0.64946   0.91123   0.27885
Si   core    0.09764   0.74589   0.61826
Ge   core    0.74027   0.66019   0.45141
Si   core    0.34826   0.08165   0.78519
Si   core    0.89774   0.25094   0.11432
Si   core    0.32469   0.24531   0.37515
Si   core    0.88795   0.65301   0.03992
Si   core    0.75613   0.08753   0.71305
Si   core    0.66354   0.75385   0.87443
Si   core    0.09595   0.33162   0.54656
Si   core    0.23983   0.91039   0.20909
Si   core    0.97424   0.12627   0.96358
Si   core    0.87094   0.85461   0.29308
Si   core    0.15780   0.02297   0.63276
Si   core    0.01928   0.86945   0.46520
Si   core    0.13033   0.14579   0.79816
Si   core    0.83860   0.97366   0.12788
Si   core    0.10361   0.96165   0.36275
Si   core    0.84464   0.88338   0.02702
Si   core    0.03642   0.14606   0.69755
Si   core    0.88641   0.02889   0.86304
Si   core    0.14568   0.10869   0.53168
Si   core    0.96124   0.85189   0.19226
O2   core    0.93308   0.00609   0.99644
O2   core    0.98514   0.92151   0.32906
O2   core    0.07520   0.06641   0.66347
O2   core    0.06902   0.99223   0.49734
O2   core    0.00816   0.06999   0.83060
O2   core    0.92146   0.93245   0.15935
O2   core    0.32780   0.58684   0.33044
O2   core    0.43134   0.75932   0.66673
O2   core    0.22503   0.65672   0.99512
O2   core    0.66280   0.41850   0.83235
O2   core    0.56407   0.23794   0.16389
O2   core    0.76546   0.33775   0.50465
O3   core    0.57471   0.34270   0.99952
O2   core    0.77013   0.41879   0.66837
O3   core    0.65775   0.23191   0.32760
O3   core    0.40439   0.64798   0.50089
O2   core    0.22565   0.58121   0.16160
O3   core    0.34624   0.75381   0.83287
O2   core    0.12753   0.22145   0.96964
O2   core    0.77888   0.91677   0.29916
O2   core    0.09811   0.87044   0.63927
O2   core    0.86512   0.78568   0.47271
O2   core    0.22061   0.08205   0.80512
O2   core    0.89951   0.12654   0.13440
O2   core    0.18243   0.11362   0.35897
O2   core    0.90232   0.78767   0.02197
O2   core    0.88268   0.08693   0.69245
O2   core    0.79740   0.87601   0.85736
O2   core    0.07690   0.19542   0.52908
O2   core    0.11468   0.91016   0.18710
O2   core    0.92680   0.87277   0.24270
O2   core    0.14163   0.05354   0.58123
O2   core    0.94095   0.07035   0.91336
O2   core    0.07706   0.12839   0.74734
O2   core    0.85352   0.93637   0.07729
O2   core    0.05342   0.91549   0.41357
O2   core    0.89748   0.20272   0.97462
O2   core    0.78931   0.70591   0.30395
O2   core    0.30900   0.09418   0.64550
O2   core    0.08814   0.78627   0.47757
O2   core    0.20983   0.29692   0.80874
O2   core    0.68679   0.90335   0.13969
O2   core    0.19485   0.90203   0.34933
O2   core    0.69328   0.80695   0.01378
O2   core    0.10892   0.29784   0.68652
O2   core    0.80328   0.09815   0.85191
O2   core    0.29565   0.19879   0.51978
O2   core    0.88748   0.70045   0.18049
O2   core    0.31522   0.64471   0.24437
O3   core    0.37001   0.67524   0.58213
O3   core    0.31120   0.68033   0.91138
O2   core    0.68047   0.35307   0.74931
O3   core    0.61539   0.31013   0.08019
O3   core    0.68819   0.31110   0.41405
O2   core    0.37840   0.34248   0.96622
O2   core    0.65969   0.04156   0.29628
O2   core    0.96758   0.62396   0.63746
O2   core    0.61100   0.66164   0.46721
O2   core    0.33899   0.95061   0.80267
O2   core    0.02914   0.37486   0.13160
O2   core    0.31623   0.37920   0.35905
O2   core    0.02254   0.66076   0.02332
O2   core    0.63495   0.95667   0.69425
O2   core    0.67172   0.62791   0.85863
O2   core    0.96400   0.32754   0.53010
O2   core    0.36098   0.04025   0.18993
O3   core    0.75076   0.29146   0.00396
O3   core    0.70321   0.46880   0.33485
O2   core    0.54000   0.22517   0.67529
O3   core    0.23125   0.69308   0.50690
O3   core    0.30084   0.53040   0.83624
O2   core    0.45474   0.77177   0.16999
O2   core    0.29151   0.77151   0.31577
O2   core    0.46034   0.70419   0.98237
O2   core    0.24523   0.52988   0.65357
O2   core    0.70444   0.22934   0.82119
O2   core    0.52171   0.29046   0.48666
O2   core    0.74996   0.46666   0.14962
O3   core    0.76160   0.53430   0.02010
O3   core    0.44897   0.23418   0.35077
O2   core    0.76154   0.21621   0.69362
O3   core    0.22244   0.44852   0.52453
O3   core    0.54383   0.76001   0.85212
O2   core    0.23400   0.78114   0.19033
O2   core    0.52588   0.78458   0.29908
O2   core    0.25076   0.47214   0.96637
O2   core    0.22289   0.74052   0.63551
O2   core    0.47044   0.20945   0.80513
O2   core    0.74315   0.53597   0.46974
O2   core    0.77341   0.25544   0.13372
O2   core    0.23527   0.33127   0.89414
O2   core    0.66544   0.90414   0.22437
O2   core    0.09428   0.75893   0.56376
O2   core    0.76112   0.67525   0.39725
O2   core    0.33138   0.08878   0.73074
O2   core    0.89571   0.23453   0.05995
O2   core    0.31723   0.22747   0.43353
O2   core    0.88561   0.66827   0.09492
O2   core    0.77514   0.08922   0.76740
O2   core    0.67047   0.77071   0.92928
O2   core    0.10360   0.32328   0.60144
O2   core    0.22165   0.91239   0.26350
O2   core    0.57930   0.56707   0.98527
O2   core    0.43232   0.02540   0.31895
O2   core    0.99149   0.42043   0.65641
O2   core    0.41241   0.43520   0.48538
O2   core    0.56597   0.97208   0.82330
O2   core    0.00501   0.57878   0.14916
O2   core    0.54088   0.58284   0.34122
O2   core    0.01057   0.43792   0.00421
O2   core    0.41691   0.96520   0.67581
O2   core    0.44595   0.41719   0.84077
O2   core    0.97549   0.55225   0.50961
O2   core    0.57912   0.03123   0.17061
O2   core    0.56699   0.16256   0.24537
O2   core    0.85197   0.42036   0.58546
O2   core    0.58662   0.43018   0.91531
O2   core    0.43016   0.83310   0.75003
O2   core    0.14268   0.57560   0.07761
O2   core    0.40426   0.57483   0.41556
F    core    0.43938   0.89919   0.24177
F    core    0.11873   0.54945   0.58314
F    core    0.43858   0.54917   0.91279
F    core    0.56031   0.10079   0.74660
F    core    0.86916   0.43259   0.07538
F    core    0.57907   0.45549   0.40986
O2   shel    0.92780   0.00581   0.99619
O2   shel    0.98563   0.91839   0.32883
O2   shel    0.08022   0.07042   0.66380
O2   shel    0.07217   0.99166   0.49762
O2   shel    0.00819   0.07394   0.83061
O2   shel    0.91658   0.92794   0.15953
O2   shel    0.33949   0.59331   0.33013
O2   shel    0.42380   0.76305   0.66635
O2   shel    0.22054   0.64542   0.99492
O2   shel    0.65128   0.41164   0.83223
O2   shel    0.57194   0.23383   0.16338
O2   shel    0.77210   0.34911   0.50448
O3   shel    0.58064   0.35416   0.99882
O2   shel    0.77498   0.41183   0.66805
O3   shel    0.64542   0.22485   0.32655
O3   shel    0.40006   0.63673   0.49997
O2   shel    0.22090   0.58773   0.16143
O3   shel    0.35796   0.76022   0.83208
O2   shel    0.12411   0.22417   0.96687
O2   shel    0.77538   0.90945   0.29642
O2   shel    0.10432   0.87328   0.63640
O2   shel    0.86900   0.78209   0.46982
O2   shel    0.22387   0.08890   0.80237
O2   shel    0.89298   0.12373   0.13164
O2   shel    0.18627   0.10849   0.36079
O2   shel    0.89448   0.78423   0.02429
O2   shel    0.88628   0.09342   0.69510
O2   shel    0.79302   0.87960   0.85969
O2   shel    0.08630   0.20031   0.53114
O2   shel    0.11095   0.90379   0.18991
O2   shel    0.92450   0.86837   0.24265
O2   shel    0.14380   0.05625   0.58142
O2   shel    0.93858   0.07204   0.91344
O2   shel    0.07839   0.13241   0.74732
O2   shel    0.85084   0.93465   0.07742
O2   shel    0.05509   0.91536   0.41373
O2   shel    0.90450   0.20432   0.97730
O2   shel    0.78992   0.71346   0.30643
O2   shel    0.30246   0.08635   0.64801
O2   shel    0.08199   0.78559   0.48019
O2   shel    0.21098   0.29148   0.81151
O2   shel    0.69324   0.91092   0.14237
O2   shel    0.19517   0.90867   0.34669
O2   shel    0.69931   0.80468   0.01131
O2   shel    0.10175   0.29242   0.68369
O2   shel    0.80203   0.09038   0.84920
O2   shel    0.28893   0.19873   0.51698
O2   shel    0.89459   0.70581   0.17779
O2   shel    0.32039   0.65646   0.24433
O3   shel    0.35678   0.66920   0.58327
O3   shel    0.31779   0.67354   0.91267
O2   shel    0.67499   0.34109   0.74934
O3   shel    0.62942   0.31718   0.08058
O3   shel    0.68209   0.31695   0.41465
O2   shel    0.38004   0.35084   0.96442
O2   shel    0.64987   0.03399   0.29430
O2   shel    0.97377   0.62064   0.63539
O2   shel    0.60945   0.65343   0.46560
O2   shel    0.34814   0.95770   0.80074
O2   shel    0.02276   0.37790   0.12959
O2   shel    0.32566   0.38351   0.36086
O2   shel    0.01673   0.65121   0.02528
O2   shel    0.63170   0.96303   0.69672
O2   shel    0.66228   0.62479   0.86069
O2   shel    0.97055   0.33723   0.53223
O2   shel    0.36420   0.03368   0.19247
O3   shel    0.76006   0.29913   0.00735
O3   shel    0.69586   0.46937   0.33798
O2   shel    0.54069   0.21848   0.67873
O3   shel    0.22148   0.68581   0.51032
O3   shel    0.30838   0.52870   0.83980
O2   shel    0.45415   0.77835   0.17340
O2   shel    0.29976   0.77870   0.31291
O2   shel    0.46020   0.69674   0.97959
O2   shel    0.23785   0.52990   0.65090
O2   shel    0.69620   0.22224   0.81817
O2   shel    0.52084   0.29763   0.48415
O2   shel    0.75706   0.46613   0.14684
O3   shel    0.77039   0.53519   0.02313
O3   shel    0.45035   0.24166   0.35371
O2   shel    0.75269   0.21044   0.69625
O3   shel    0.21404   0.44923   0.52768
O3   shel    0.54328   0.75150   0.85543
O2   shel    0.24295   0.78684   0.19274
O2   shel    0.52262   0.78957   0.29654
O2   shel    0.25751   0.47435   0.96393
O2   shel    0.21832   0.73425   0.63326
O2   shel    0.47386   0.20491   0.80249
O2   shel    0.73721   0.53535   0.46741
O2   shel    0.77769   0.26183   0.13119
O2   shel    0.24398   0.33987   0.89502
O2   shel    0.65575   0.90472   0.22523
O2   shel    0.09514   0.75100   0.56467
O2   shel    0.75322   0.66751   0.39854
O2   shel    0.34103   0.08844   0.73147
O2   shel    0.89499   0.24268   0.06087
O2   shel    0.32563   0.23605   0.43354
O2   shel    0.88546   0.65930   0.09452
O2   shel    0.76572   0.08964   0.76638
O2   shel    0.66183   0.76209   0.92862
O2   shel    0.10378   0.33202   0.60077
O2   shel    0.23077   0.91151   0.26251
O2   shel    0.57668   0.56759   0.98244
O2   shel    0.43095   0.02076   0.31571
O2   shel    0.99445   0.42317   0.65344
O2   shel    0.41418   0.43438   0.48297
O2   shel    0.56675   0.97617   0.82008
O2   shel    0.00188   0.57578   0.14632
O2   shel    0.53937   0.57906   0.34399
O2   shel    0.00665   0.43806   0.00729
O2   shel    0.42221   0.97062   0.67912
O2   shel    0.44588   0.42145   0.84373
O2   shel    0.97998   0.55259   0.51273
O2   shel    0.57371   0.02560   0.17395
O2   shel    0.56229   0.15208   0.24497
O2   shel    0.86131   0.42489   0.58551
O2   shel    0.58179   0.43415   0.91502
O2   shel    0.43477   0.84286   0.74969
O2   shel    0.13345   0.57111   0.07776
O2   shel    0.40851   0.57076   0.41521
F    shel    0.43890   0.89817   0.24143
F    shel    0.12707   0.55223   0.58094
F    shel    0.43539   0.55447   0.91068
F    shel    0.56121   0.10222   0.74626
F    shel    0.86107   0.42934   0.07363
F    shel    0.58196   0.45108   0.40816
species
Si    core  4.00000
O1    core  1.733957
O1    shel -3.733957
O2    core  0.870733
O2    shel -2.870733
O3    core  1.330431
O3    shel -3.330431
F     core  0.56
F     shel -1.56
Ge    core  4.0
buck
Si core    O1 shel     1315.2478 0.317759 10.141118 0.0 16.0
Si core    O2 shel     1315.2478 0.317759 10.141118 0.0 16.0
Si core    O3 shel     1315.2478 0.317759 10.141118 0.0 16.0
Ge core    O1 shel     1497.3996 0.325646 16.808599 0.0 16.0
Ge core    O2 shel     1497.3996 0.325646 16.808599 0.0 16.0
Ge core    O3 shel     1497.3996 0.325646 16.808599 0.0 16.0
O1 shel    O1 shel    22764.0000 0.149000 10.937044 0.0 16.0
O1 shel    O2 shel    22764.0000 0.149000 10.937044 0.0 16.0
O1 shel    O3 shel    22764.0000 0.149000 10.937044 0.0 16.0
O2 shel    O2 shel    22764.0000 0.149000 10.937044 0.0 16.0
O2 shel    O3 shel    22764.0000 0.149000 10.937044 0.0 16.0
O3 shel    O3 shel    22764.0000 0.149000 10.937044 0.0 16.0
Si core     F shel     976.82887 0.282000 0.0       0.0 16.0
Ge core     F shel     681.47288 0.320000 0.0       0.0 16.0
F  shel     F shel     540.39761 0.262490 0.0       0.0 16.0
O1 shel     F shel    1675.00000 0.268000 0.0       0.0 16.0
O2 shel     F shel    1675.00000 0.268000 0.0       0.0 16.0
O3 shel     F shel    1675.00000 0.268000 0.0       0.0 16.0
spring
O2     75.969800
O3    128.142790
O1    180.315770
F      33.452757
three
Si core O1 shel O1 shel 1.2614 109.47 1.9 1.9 3.5
Si core O1 shel O2 shel 1.2614 109.47 1.9 1.9 3.5
Si core O2 shel O2 shel 1.2614 109.47 1.9 1.9 3.5
cutp             16.0 1.0
cuts 0.8
output cif       c00003.cif
dump every 1     c00003.res
