opti conv qok
stepmx 0.003
cell
  11.89188  12.01548  29.39090  89.94972  89.98289 119.39045
fractional
Si   core    0.69960   0.37570   0.03389
Ge   core    0.60029   0.31172   0.36501
Si   core    0.67337   0.28284   0.70085
Si   core    0.26920   0.59499   0.53821
Si   core    0.38024   0.65540   0.86678
Si   core    0.30023   0.69197   0.19595
Si   core    0.35520   0.69234   0.29660
Si   core    0.30782   0.61885   0.96229
Si   core    0.30676   0.66564   0.63400
Si   core    0.61872   0.28663   0.80112
Ge   core    0.66770   0.36039   0.46692
Si   core    0.67049   0.31161   0.12966
Si   core    0.53107   0.41749   0.96835
Si   core    0.56012   0.10331   0.29702
Si   core    0.88853   0.45882   0.63808
Si   core    0.44200   0.56671   0.46980
Si   core    0.41770   0.86694   0.80387
Si   core    0.08839   0.51908   0.13094
Si   core    0.38654   0.52087   0.36480
Si   core    0.09126   0.57247   0.02733
Si   core    0.47246   0.87545   0.70042
Si   core    0.58151   0.46559   0.86390
Si   core    0.88551   0.40379   0.53498
Si   core    0.50378   0.09968   0.19464
Si   core    0.29623   0.39124   0.84727
Si   core    0.57517   0.89118   0.17929
Si   core    0.08977   0.68489   0.51736
Ge   core    0.67959   0.59105   0.34723
Si   core    0.39854   0.08254   0.68525
Si   core    0.88210   0.29101   0.01212
Si   core    0.37869   0.28142   0.48194
Si   core    0.87199   0.59087   0.14343
Si   core    0.69706   0.08630   0.81493
Si   core    0.59041   0.69975   0.97691
Si   core    0.10485   0.38737   0.64986
Si   core    0.27745   0.89404   0.31035
Si   core    0.24677   0.33887   0.94976
Si   core    0.63442   0.89885   0.27962
Si   core    0.08957   0.73579   0.62014
Si   core    0.72944   0.64902   0.45266
Si   core    0.34178   0.07249   0.78634
Si   core    0.88624   0.24100   0.11473
Ge   core    0.31010   0.23320   0.37709
Si   core    0.88435   0.64967   0.04105
Si   core    0.74969   0.07858   0.71431
Si   core    0.65656   0.74581   0.87489
Si   core    0.08817   0.32267   0.54795
Si   core    0.22661   0.89876   0.20929
Si   core    0.96852   0.11939   0.96461
Si   core    0.85660   0.84268   0.29445
Si   core    0.14949   0.01240   0.63415
Si   core    0.00812   0.85872   0.46681
Si   core    0.12412   0.13680   0.79959
Si   core    0.82544   0.96304   0.12931
Si   core    0.08904   0.94978   0.36402
Si   core    0.83730   0.87719   0.02831
Si   core    0.02994   0.13728   0.69901
Si   core    0.88005   0.02013   0.86431
Si   core    0.13591   0.09796   0.53314
Si   core    0.94833   0.84081   0.19371
O2   core    0.92661   0.00169   0.99878
O2   core    0.96870   0.90996   0.33125
O2   core    0.06886   0.05774   0.66498
O2   core    0.05838   0.98284   0.49833
O2   core    0.00269   0.06166   0.83234
O2   core    0.90631   0.92186   0.16189
O2   core    0.31400   0.57579   0.33248
O2   core    0.42492   0.75026   0.66808
O2   core    0.21969   0.64993   0.99682
O2   core    0.65607   0.40982   0.83330
O2   core    0.55166   0.22684   0.16343
O2   core    0.75720   0.32814   0.50552
O3   core    0.57191   0.33865   0.00011
O2   core    0.76214   0.40881   0.66958
O3   core    0.64191   0.21990   0.32800
O3   core    0.39557   0.63838   0.50264
O2   core    0.21258   0.56827   0.16363
O3   core    0.33912   0.74496   0.83410
O2   core    0.12177   0.21379   0.97052
O2   core    0.76441   0.90498   0.29962
O2   core    0.08998   0.86013   0.64137
O2   core    0.85406   0.77422   0.47420
O2   core    0.21437   0.07292   0.80641
O2   core    0.88598   0.11591   0.13522
O2   core    0.16777   0.10187   0.36088
O2   core    0.89724   0.78326   0.02301
O2   core    0.87646   0.07857   0.69374
O2   core    0.79054   0.86769   0.85793
O2   core    0.06898   0.18640   0.53062
O2   core    0.10135   0.89875   0.18735
O2   core    0.91683   0.86107   0.24469
O2   core    0.12987   0.04018   0.58250
O2   core    0.93353   0.05942   0.91495
O2   core    0.07007   0.11892   0.74885
O2   core    0.84365   0.92587   0.07909
O2   core    0.04100   0.90241   0.41492
O2   core    0.89317   0.19782   0.97468
O2   core    0.77422   0.69398   0.30516
O2   core    0.30109   0.08342   0.64631
O2   core    0.07823   0.77692   0.47951
O2   core    0.20361   0.28793   0.80984
O2   core    0.67318   0.89224   0.14032
O2   core    0.17953   0.89031   0.34953
O2   core    0.68689   0.80098   0.01427
O2   core    0.10260   0.28902   0.68804
O2   core    0.79752   0.09016   0.85323
O2   core    0.28629   0.18731   0.52169
O2   core    0.87466   0.68957   0.18170
O2   core    0.30118   0.63246   0.24596
O3   core    0.36155   0.66609   0.58366
O3   core    0.30383   0.67170   0.91245
O2   core    0.67290   0.34344   0.75040
O3   core    0.61073   0.30662   0.07970
O3   core    0.67489   0.29837   0.41500
O2   core    0.37281   0.33575   0.96745
O2   core    0.64382   0.02902   0.29679
O2   core    0.95948   0.61362   0.63896
O2   core    0.60026   0.65000   0.46877
O2   core    0.33319   0.94188   0.80392
O2   core    0.01747   0.36417   0.13232
O2   core    0.30161   0.36739   0.36119
O2   core    0.01819   0.65586   0.02471
O2   core    0.62897   0.94752   0.69552
O2   core    0.66524   0.62010   0.85912
O2   core    0.95631   0.31877   0.53139
O2   core    0.34747   0.02847   0.18985
O3   core    0.74813   0.28965   0.00354
O3   core    0.68841   0.45641   0.33600
O2   core    0.53223   0.21548   0.67634
O3   core    0.22192   0.68352   0.50838
O3   core    0.29380   0.52167   0.83716
O2   core    0.44078   0.75894   0.17089
O2   core    0.27759   0.76048   0.31689
O2   core    0.45393   0.69730   0.98321
O2   core    0.23802   0.52077   0.65527
O2   core    0.69711   0.22003   0.82256
O2   core    0.51178   0.27950   0.48811
O2   core    0.73899   0.45716   0.15012
O3   core    0.75842   0.53193   0.02011
O3   core    0.43412   0.22218   0.35249
O2   core    0.75417   0.20670   0.69466
O3   core    0.21418   0.43958   0.52586
O3   core    0.53642   0.75102   0.85265
O2   core    0.22028   0.76894   0.19089
O2   core    0.51161   0.77259   0.30037
O2   core    0.24454   0.46465   0.96758
O2   core    0.21495   0.73073   0.63751
O2   core    0.46352   0.20043   0.80622
O2   core    0.73315   0.52469   0.47054
O2   core    0.76221   0.24651   0.13363
O2   core    0.22961   0.32368   0.89525
O2   core    0.65028   0.89117   0.22514
O2   core    0.08648   0.74962   0.56562
O2   core    0.74844   0.66412   0.39837
O2   core    0.32440   0.07893   0.73180
O2   core    0.88616   0.22617   0.06026
O2   core    0.30524   0.21617   0.43554
O2   core    0.87759   0.66087   0.09608
O2   core    0.76872   0.08046   0.76872
O2   core    0.66325   0.76324   0.92979
O2   core    0.09697   0.31469   0.60287
O2   core    0.20782   0.90086   0.26371
O2   core    0.57311   0.56070   0.98617
O2   core    0.41712   0.01435   0.31914
O2   core    0.98396   0.41061   0.65778
O2   core    0.40224   0.42413   0.48730
O2   core    0.55995   0.96293   0.82471
O2   core    0.99348   0.56812   0.15047
O2   core    0.52633   0.57007   0.34274
O2   core    0.00626   0.43200   0.00534
O2   core    0.41106   0.95624   0.67689
O2   core    0.43970   0.40936   0.84148
O2   core    0.96632   0.54317   0.51129
O2   core    0.56456   0.01868   0.17096
O2   core    0.55230   0.15040   0.24541
O2   core    0.84331   0.40992   0.58679
O2   core    0.58039   0.42359   0.91609
O2   core    0.42466   0.82443   0.75136
O2   core    0.13448   0.56756   0.07937
O2   core    0.39211   0.56333   0.41749
F    core    0.42403   0.88538   0.24226
F    core    0.09174   0.53772   0.58491
F    core    0.44481   0.53230   0.91546
F    core    0.55412   0.09178   0.74782
F    core    0.87266   0.43014   0.07803
F    core    0.54277   0.41013   0.40602
O2   shel    0.92126   0.00086   0.99828
O2   shel    0.96972   0.90681   0.33082
O2   shel    0.07367   0.06152   0.66529
O2   shel    0.06150   0.98193   0.49873
O2   shel    0.00253   0.06548   0.83227
O2   shel    0.90191   0.91730   0.16182
O2   shel    0.32561   0.58208   0.33210
O2   shel    0.41733   0.75399   0.66773
O2   shel    0.21499   0.63859   0.99655
O2   shel    0.64455   0.40301   0.83317
O2   shel    0.55936   0.22289   0.16301
O2   shel    0.76356   0.33927   0.50540
O3   shel    0.57750   0.35034   0.99926
O2   shel    0.76701   0.40182   0.66927
O3   shel    0.62974   0.21278   0.32697
O3   shel    0.39100   0.62698   0.50173
O2   shel    0.20793   0.57514   0.16332
O3   shel    0.35099   0.75131   0.83334
O2   shel    0.11829   0.21658   0.96780
O2   shel    0.76087   0.89759   0.29701
O2   shel    0.09617   0.86298   0.63840
O2   shel    0.85796   0.77077   0.47131
O2   shel    0.21758   0.07979   0.80366
O2   shel    0.87968   0.11313   0.13247
O2   shel    0.17165   0.09674   0.36263
O2   shel    0.88939   0.77951   0.02541
O2   shel    0.88001   0.08495   0.69640
O2   shel    0.78622   0.87128   0.86032
O2   shel    0.07819   0.19111   0.53266
O2   shel    0.09769   0.89244   0.19027
O2   shel    0.91365   0.85670   0.24451
O2   shel    0.13271   0.04356   0.58273
O2   shel    0.93151   0.06186   0.91494
O2   shel    0.07153   0.12307   0.74881
O2   shel    0.84084   0.92461   0.07909
O2   shel    0.04260   0.90272   0.41512
O2   shel    0.89996   0.19918   0.97749
O2   shel    0.77501   0.70153   0.30767
O2   shel    0.29462   0.07575   0.64889
O2   shel    0.07201   0.77608   0.48209
O2   shel    0.20475   0.28256   0.81264
O2   shel    0.67958   0.89970   0.14307
O2   shel    0.18000   0.89700   0.34704
O2   shel    0.69296   0.79869   0.01192
O2   shel    0.09533   0.28355   0.68520
O2   shel    0.79617   0.08223   0.85052
O2   shel    0.27947   0.18736   0.51884
O2   shel    0.88196   0.69502   0.17902
O2   shel    0.30644   0.64432   0.24593
O3   shel    0.34837   0.66006   0.58483
O3   shel    0.31043   0.66496   0.91383
O2   shel    0.66741   0.33144   0.75046
O3   shel    0.62440   0.31317   0.08059
O3   shel    0.66898   0.30433   0.41563
O2   shel    0.37434   0.34406   0.96558
O2   shel    0.63421   0.02159   0.29482
O2   shel    0.96572   0.61037   0.63691
O2   shel    0.59872   0.64186   0.46715
O2   shel    0.34227   0.94896   0.80199
O2   shel    0.01114   0.36731   0.13035
O2   shel    0.31110   0.37167   0.36294
O2   shel    0.01216   0.64640   0.02666
O2   shel    0.62566   0.95390   0.69799
O2   shel    0.65576   0.61694   0.86120
O2   shel    0.96266   0.32832   0.53351
O2   shel    0.35075   0.02206   0.19239
O3   shel    0.75764   0.29702   0.00701
O3   shel    0.68114   0.45704   0.33914
O2   shel    0.53290   0.20872   0.67976
O3   shel    0.21223   0.67631   0.51184
O3   shel    0.30137   0.51991   0.84071
O2   shel    0.44035   0.76575   0.17432
O2   shel    0.28571   0.76749   0.31401
O2   shel    0.45377   0.68981   0.98045
O2   shel    0.23066   0.52082   0.65258
O2   shel    0.68899   0.21300   0.81951
O2   shel    0.51084   0.28661   0.48560
O2   shel    0.74615   0.45684   0.14738
O3   shel    0.76694   0.53200   0.02328
O3   shel    0.43554   0.22964   0.35542
O2   shel    0.74537   0.20091   0.69733
O3   shel    0.20573   0.44017   0.52905
O3   shel    0.53616   0.74271   0.85599
O2   shel    0.22929   0.77481   0.19335
O2   shel    0.50830   0.77755   0.29781
O2   shel    0.25127   0.46687   0.96513
O2   shel    0.21043   0.72449   0.63523
O2   shel    0.46699   0.19588   0.80360
O2   shel    0.72708   0.52406   0.46828
O2   shel    0.76649   0.25272   0.13115
O2   shel    0.23823   0.33224   0.89611
O2   shel    0.64069   0.89189   0.22598
O2   shel    0.08718   0.74157   0.56652
O2   shel    0.74061   0.65629   0.39971
O2   shel    0.33405   0.07867   0.73251
O2   shel    0.88571   0.23437   0.06120
O2   shel    0.31359   0.22468   0.43549
O2   shel    0.87761   0.65214   0.09558
O2   shel    0.75930   0.08086   0.76769
O2   shel    0.65472   0.75464   0.92916
O2   shel    0.09698   0.32333   0.60220
O2   shel    0.21696   0.89995   0.26276
O2   shel    0.57054   0.56136   0.98331
O2   shel    0.41580   0.00958   0.31593
O2   shel    0.98693   0.41340   0.65482
O2   shel    0.40396   0.42328   0.48486
O2   shel    0.56070   0.96708   0.82150
O2   shel    0.99037   0.56522   0.14762
O2   shel    0.52489   0.56645   0.34553
O2   shel    0.00218   0.43221   0.00838
O2   shel    0.41618   0.96159   0.68019
O2   shel    0.43960   0.41357   0.84446
O2   shel    0.97086   0.54338   0.51437
O2   shel    0.55926   0.01330   0.17428
O2   shel    0.54771   0.14014   0.24500
O2   shel    0.85268   0.41454   0.58681
O2   shel    0.57559   0.42753   0.91576
O2   shel    0.42919   0.83418   0.75101
O2   shel    0.12515   0.56297   0.07941
O2   shel    0.39634   0.55925   0.41711
F    shel    0.42342   0.88413   0.24191
F    shel    0.10018   0.54059   0.58268
F    shel    0.44148   0.53773   0.91328
F    shel    0.55506   0.09324   0.74748
F    shel    0.86416   0.42699   0.07600
F    shel    0.54565   0.40569   0.40428
species
Si    core  4.00000
O1    core  1.733957
O1    shel -3.733957
O2    core  0.870733
O2    shel -2.870733
O3    core  1.330431
O3    shel -3.330431
F     core  0.56
F     shel -1.56
Ge    core  4.0
buck
Si core    O1 shel     1315.2478 0.317759 10.141118 0.0 16.0
Si core    O2 shel     1315.2478 0.317759 10.141118 0.0 16.0
Si core    O3 shel     1315.2478 0.317759 10.141118 0.0 16.0
Ge core    O1 shel     1497.3996 0.325646 16.808599 0.0 16.0
Ge core    O2 shel     1497.3996 0.325646 16.808599 0.0 16.0
Ge core    O3 shel     1497.3996 0.325646 16.808599 0.0 16.0
O1 shel    O1 shel    22764.0000 0.149000 10.937044 0.0 16.0
O1 shel    O2 shel    22764.0000 0.149000 10.937044 0.0 16.0
O1 shel    O3 shel    22764.0000 0.149000 10.937044 0.0 16.0
O2 shel    O2 shel    22764.0000 0.149000 10.937044 0.0 16.0
O2 shel    O3 shel    22764.0000 0.149000 10.937044 0.0 16.0
O3 shel    O3 shel    22764.0000 0.149000 10.937044 0.0 16.0
Si core     F shel     976.82887 0.282000 0.0       0.0 16.0
Ge core     F shel     681.47288 0.320000 0.0       0.0 16.0
F  shel     F shel     540.39761 0.262490 0.0       0.0 16.0
O1 shel     F shel    1675.00000 0.268000 0.0       0.0 16.0
O2 shel     F shel    1675.00000 0.268000 0.0       0.0 16.0
O3 shel     F shel    1675.00000 0.268000 0.0       0.0 16.0
spring
O2     75.969800
O3    128.142790
O1    180.315770
F      33.452757
three
Si core O1 shel O1 shel 1.2614 109.47 1.9 1.9 3.5
Si core O1 shel O2 shel 1.2614 109.47 1.9 1.9 3.5
Si core O2 shel O2 shel 1.2614 109.47 1.9 1.9 3.5
cutp             16.0 1.0
cuts 0.8
output cif       out2.2.cif
dump every 1     out2.2.res
