# 
# Keywords:
# 
opti conp qok rfo  
# 
# Options:
# 
cell
  11.989344  11.926664  29.475477  89.500665  89.957372 119.921907
fractional  1   
Si    core 0.6996000 0.3757000 0.0338899 4.00000000 1.00000 0.00000             
Si    core 0.6180560 0.3112816 0.3677645 4.00000000 1.00000 0.00000             
Si    core 0.6728071 0.2763620 0.6986571 4.00000000 1.00000 0.00000             
Si    core 0.2912561 0.6036819 0.5313939 4.00000000 1.00000 0.00000             
Si    core 0.3854055 0.6750137 0.8679018 4.00000000 1.00000 0.00000             
Si    core 0.3252002 0.6980354 0.2007283 4.00000000 1.00000 0.00000             
Si    core 0.3782713 0.6948352 0.3012723 4.00000000 1.00000 0.00000             
Si    core 0.3295998 0.6186773 0.9707604 4.00000000 1.00000 0.00000             
Si    core 0.2923311 0.6572711 0.6319495 4.00000000 1.00000 0.00000             
Si    core 0.6225216 0.2854140 0.8006881 4.00000000 1.00000 0.00000             
Si    core 0.6699772 0.3641116 0.4682390 4.00000000 1.00000 0.00000             
Si    core 0.7060141 0.3224746 0.1356119 4.00000000 1.00000 0.00000             
Ge    core 0.5328282 0.4262806 0.9660823 4.00000000 1.00000 0.00000             
Si    core 0.5810443 0.1031034 0.3027092 4.00000000 1.00000 0.00000             
Si    core 0.8836619 0.4507547 0.6334178 4.00000000 1.00000 0.00000             
Si    core 0.4662381 0.5683953 0.4675720 4.00000000 1.00000 0.00000             
Ge    core 0.4335404 0.8906898 0.7981663 4.00000000 1.00000 0.00000             
Si    core 0.1157817 0.5284276 0.1356446 4.00000000 1.00000 0.00000             
Si    core 0.4150911 0.5199922 0.3660683 4.00000000 1.00000 0.00000             
Si    core 0.1149752 0.5804109 0.0342569 4.00000000 1.00000 0.00000             
Si    core 0.4644389 0.8552854 0.6993749 4.00000000 1.00000 0.00000             
Si    core 0.5952531 0.4609426 0.8667842 4.00000000 1.00000 0.00000             
Si    core 0.8798436 0.3988172 0.5321706 4.00000000 1.00000 0.00000             
Si    core 0.5328074 0.1106017 0.2010708 4.00000000 1.00000 0.00000             
Si    core 0.3095028 0.3909971 0.8546363 4.00000000 1.00000 0.00000             
Si    core 0.6037723 0.8999616 0.1868034 4.00000000 1.00000 0.00000             
Si    core 0.0894845 0.6805919 0.5180161 4.00000000 1.00000 0.00000             
Si    core 0.6959189 0.5910113 0.3528931 4.00000000 1.00000 0.00000             
Si    core 0.3917802 0.0710828 0.6859118 4.00000000 1.00000 0.00000             
Si    core 0.9044812 0.3004446 0.0206718 4.00000000 1.00000 0.00000             
Si    core 0.3926284 0.2869347 0.4830374 4.00000000 1.00000 0.00000             
Si    core 0.9080832 0.6003332 0.1500318 4.00000000 1.00000 0.00000             
Si    core 0.7051617 0.0837737 0.8200368 4.00000000 1.00000 0.00000             
Si    core 0.6117018 0.6995345 0.9885524 4.00000000 1.00000 0.00000             
Si    core 0.0908488 0.3786474 0.6477657 4.00000000 1.00000 0.00000             
Si    core 0.3007185 0.8952414 0.3169772 4.00000000 1.00000 0.00000             
Si    core 0.2544976 0.3298668 0.9567493 4.00000000 1.00000 0.00000             
Si    core 0.6593311 0.9024637 0.2874312 4.00000000 1.00000 0.00000             
Si    core 0.0835986 0.7302522 0.6187097 4.00000000 1.00000 0.00000             
Si    core 0.7444617 0.6467310 0.4535562 4.00000000 1.00000 0.00000             
Si    core 0.3347883 0.0721205 0.7881635 4.00000000 1.00000 0.00000             
Si    core 0.9146502 0.2503802 0.1211359 4.00000000 1.00000 0.00000             
Si    core 0.3372311 0.2399839 0.3823049 4.00000000 1.00000 0.00000             
Si    core 0.9134663 0.6570071 0.0491531 4.00000000 1.00000 0.00000             
Si    core 0.7444193 0.0621531 0.7170425 4.00000000 1.00000 0.00000             
Si    core 0.6694540 0.7417659 0.8851392 4.00000000 1.00000 0.00000             
Si    core 0.0815610 0.3217824 0.5472233 4.00000000 1.00000 0.00000             
Si    core 0.2540279 0.9083755 0.2162729 4.00000000 1.00000 0.00000             
Si    core 0.9707187 0.1197067 0.9711782 4.00000000 1.00000 0.00000             
Si    core 0.8778207 0.8407361 0.3027896 4.00000000 1.00000 0.00000             
Si    core 0.1454826 0.0100843 0.6359173 4.00000000 1.00000 0.00000             
Si    core 0.0237839 0.8642789 0.4686573 4.00000000 1.00000 0.00000             
Si    core 0.1252542 0.1473460 0.8033876 4.00000000 1.00000 0.00000             
Si    core 0.8539056 0.9702334 0.1377155 4.00000000 1.00000 0.00000             
Si    core 0.1193342 0.9608854 0.3678414 4.00000000 1.00000 0.00000             
Si    core 0.8554373 0.8798549 0.0372796 4.00000000 1.00000 0.00000             
Si    core 0.0269979 0.1337097 0.7019057 4.00000000 1.00000 0.00000             
Si    core 0.8877096 0.0246668 0.8703464 4.00000000 1.00000 0.00000             
Si    core 0.1453540 0.1050552 0.5345645 4.00000000 1.00000 0.00000             
Si    core 0.9749158 0.8463589 0.2020526 4.00000000 1.00000 0.00000             
O2    core 0.9372660 0.0033312 0.0055805 0.87073300 1.00000 0.00000             
O2    core 0.9964332 0.9191894 0.3364019 0.87073300 1.00000 0.00000             
O2    core 0.0709922 0.0508443 0.6716451 0.87073300 1.00000 0.00000             
O2    core 0.0656635 0.9807401 0.5035850 0.87073300 1.00000 0.00000             
O2    core 0.0103552 0.0651340 0.8383702 0.87073300 1.00000 0.00000             
O2    core 0.9324171 0.9304034 0.1718225 0.87073300 1.00000 0.00000             
O2    core 0.3390011 0.5693141 0.3336725 0.87073300 1.00000 0.00000             
O2    core 0.4196007 0.7410430 0.6623305 0.87073300 1.00000 0.00000             
O2    core 0.2414971 0.6559008 0.0016677 0.87073300 1.00000 0.00000             
O2    core 0.6640568 0.4152403 0.8289437 0.87073300 1.00000 0.00000             
O2    core 0.5830633 0.2375034 0.1688807 0.87073300 1.00000 0.00000             
O2    core 0.7540281 0.3232425 0.5005776 0.87073300 1.00000 0.00000             
O3    core 0.5821415 0.3388077 0.0021283 1.33043099 1.00000 0.00000             
O2    core 0.7566354 0.3983317 0.6656615 0.87073300 1.00000 0.00000             
O2    core 0.6573478 0.2275286 0.3354060 0.87073300 1.00000 0.00000             
O2    core 0.4149863 0.6444245 0.4991981 0.87073300 1.00000 0.00000             
O2    core 0.2414036 0.5766901 0.1678465 0.87073300 1.00000 0.00000             
O3    core 0.3490162 0.7550354 0.8353510 1.33043099 1.00000 0.00000             
O2    core 0.1223140 0.2119973 0.9760312 0.87073300 1.00000 0.00000             
O2    core 0.7857619 0.9029189 0.3074539 0.87073300 1.00000 0.00000             
O2    core 0.0807422 0.8547807 0.6392734 0.87073300 1.00000 0.00000             
O2    core 0.8696568 0.7736136 0.4735529 0.87073300 1.00000 0.00000             
O2    core 0.2157816 0.0848117 0.8067611 0.87073300 1.00000 0.00000             
O2    core 0.9155184 0.1243962 0.1420139 0.87073300 1.00000 0.00000             
O2    core 0.2111849 0.1153382 0.3619637 0.87073300 1.00000 0.00000             
O2    core 0.9123309 0.7841197 0.0293724 0.87073300 1.00000 0.00000             
O2    core 0.8725678 0.0670903 0.6966644 0.87073300 1.00000 0.00000             
O2    core 0.7927487 0.8709534 0.8643380 0.87073300 1.00000 0.00000             
O2    core 0.0811538 0.1950445 0.5275562 0.87073300 1.00000 0.00000             
O2    core 0.1288438 0.9101217 0.1962735 0.87073300 1.00000 0.00000             
O2    core 0.9357891 0.8549906 0.2531600 0.87073300 1.00000 0.00000             
O2    core 0.1330012 0.0574888 0.5863319 0.87073300 1.00000 0.00000             
O2    core 0.9327785 0.0603305 0.9214089 0.87073300 1.00000 0.00000             
O2    core 0.0668189 0.1325368 0.7535166 0.87073300 1.00000 0.00000             
O2    core 0.8715799 0.9274930 0.0884107 0.87073300 1.00000 0.00000             
O2    core 0.0675781 0.9236490 0.4189105 0.87073300 1.00000 0.00000             
O2    core 0.8995659 0.2008565 0.9819928 0.87073300 1.00000 0.00000             
O2    core 0.7951599 0.6882033 0.3146843 0.87073300 1.00000 0.00000             
O2    core 0.2968327 0.0735686 0.6473024 0.87073300 1.00000 0.00000             
O2    core 0.0911473 0.7790827 0.4794927 0.87073300 1.00000 0.00000             
O2    core 0.2103376 0.2986443 0.8156572 0.87073300 1.00000 0.00000             
O2    core 0.7015863 0.9000060 0.1486845 0.87073300 1.00000 0.00000             
O2    core 0.2009065 0.8909744 0.3554686 0.87073300 1.00000 0.00000             
O2    core 0.7048370 0.8098698 0.0243100 0.87073300 1.00000 0.00000             
O2    core 0.0945796 0.2830642 0.6864307 0.87073300 1.00000 0.00000             
O2    core 0.8168488 0.1040133 0.8555479 0.87073300 1.00000 0.00000             
O2    core 0.2962474 0.1874278 0.5217850 0.87073300 1.00000 0.00000             
O2    core 0.9053339 0.6961003 0.1884519 0.87073300 1.00000 0.00000             
O2    core 0.3227955 0.6385976 0.2510869 0.87073300 1.00000 0.00000             
O2    core 0.3473906 0.6571601 0.5816456 0.87073300 1.00000 0.00000             
O2    core 0.3345573 0.6708635 0.9195217 0.87073300 1.00000 0.00000             
O2    core 0.6713676 0.3291113 0.7487790 0.87073300 1.00000 0.00000             
O2    core 0.6497669 0.3236600 0.0858018 0.87073300 1.00000 0.00000             
O2    core 0.6721304 0.3082813 0.4182636 0.87073300 1.00000 0.00000             
O3    core 0.3663319 0.3105554 0.9761596 1.33043099 1.00000 0.00000             
O2    core 0.6686007 0.0343125 0.3061650 0.87073300 1.00000 0.00000             
O2    core 0.9519635 0.6069323 0.6378420 0.87073300 1.00000 0.00000             
O2    core 0.6218024 0.6563225 0.4718572 0.87073300 1.00000 0.00000             
O3    core 0.3180007 0.9416451 0.8082908 1.33043099 1.00000 0.00000             
O2    core 0.0469126 0.3717160 0.1397085 0.87073300 1.00000 0.00000             
O2    core 0.3279007 0.3633417 0.3639513 0.87073300 1.00000 0.00000             
O2    core 0.0474737 0.6694151 0.0308846 0.87073300 1.00000 0.00000             
O2    core 0.6227627 0.9297033 0.6991195 0.87073300 1.00000 0.00000             
O2    core 0.6802072 0.6197599 0.8663227 0.87073300 1.00000 0.00000             
O2    core 0.9484416 0.3108206 0.5296557 0.87073300 1.00000 0.00000             
O2    core 0.3768375 0.0418515 0.1983826 0.87073300 1.00000 0.00000             
O2    core 0.7719432 0.3009480 0.0138920 0.87073300 1.00000 0.00000             
O2    core 0.6946488 0.4560583 0.3459196 0.87073300 1.00000 0.00000             
O2    core 0.5278238 0.2033775 0.6790625 0.87073300 1.00000 0.00000             
O2    core 0.2227921 0.6802184 0.5102498 0.87073300 1.00000 0.00000             
O2    core 0.3136136 0.5268665 0.8495656 0.87073300 1.00000 0.00000             
O2    core 0.4694336 0.7669523 0.1790707 0.87073300 1.00000 0.00000             
O2    core 0.3019728 0.7610287 0.3242984 0.87073300 1.00000 0.00000             
O2    core 0.4732829 0.6939297 0.9917708 0.87073300 1.00000 0.00000             
O2    core 0.2228950 0.5140154 0.6552981 0.87073300 1.00000 0.00000             
O2    core 0.6976952 0.2163693 0.8220044 0.87073300 1.00000 0.00000             
O2    core 0.5270438 0.2882370 0.4910618 0.87073300 1.00000 0.00000             
O2    core 0.7754470 0.4652392 0.1582919 0.87073300 1.00000 0.00000             
O2    core 0.7898118 0.5326722 0.0291883 0.87073300 1.00000 0.00000             
O2    core 0.4626129 0.2392649 0.3630353 0.87073300 1.00000 0.00000             
O2    core 0.7353146 0.1841510 0.6977498 0.87073300 1.00000 0.00000             
O2    core 0.2063745 0.4475899 0.5268388 0.87073300 1.00000 0.00000             
O2    core 0.5399861 0.7331156 0.8665726 0.87073300 1.00000 0.00000             
O2    core 0.2536594 0.7827364 0.1964885 0.87073300 1.00000 0.00000             
O2    core 0.5339919 0.7746656 0.3068626 0.87073300 1.00000 0.00000             
O2    core 0.2643193 0.4635400 0.9740664 0.87073300 1.00000 0.00000             
O2    core 0.2117397 0.7332424 0.6374296 0.87073300 1.00000 0.00000             
O2    core 0.4679665 0.1973185 0.8047955 0.87073300 1.00000 0.00000             
O2    core 0.7456007 0.5206746 0.4734807 0.87073300 1.00000 0.00000             
O2    core 0.7873370 0.2474262 0.1405189 0.87073300 1.00000 0.00000             
O2    core 0.2431837 0.3179795 0.9016208 0.87073300 1.00000 0.00000             
O2    core 0.6773230 0.9023548 0.2331837 0.87073300 1.00000 0.00000             
O2    core 0.0842963 0.7500273 0.5644386 0.87073300 1.00000 0.00000             
O2    core 0.7645622 0.6650305 0.3993107 0.87073300 1.00000 0.00000             
O2    core 0.3234552 0.0703760 0.7330268 0.87073300 1.00000 0.00000             
O2    core 0.9126020 0.2301688 0.0669284 0.87073300 1.00000 0.00000             
O2    core 0.3189805 0.2181196 0.4366941 0.87073300 1.00000 0.00000             
O2    core 0.9113996 0.6746118 0.1034736 0.87073300 1.00000 0.00000             
O2    core 0.7609511 0.0677323 0.7711709 0.87073300 1.00000 0.00000             
O2    core 0.6825142 0.7569560 0.9393621 0.87073300 1.00000 0.00000             
O2    core 0.0863810 0.3046299 0.6015311 0.87073300 1.00000 0.00000             
O2    core 0.2327361 0.9031462 0.2706251 0.87073300 1.00000 0.00000             
O3    core 0.6046627 0.5678501 0.0013395 1.33043099 1.00000 0.00000             
O2    core 0.4397227 0.0203409 0.3262195 0.87073300 1.00000 0.00000             
O2    core 0.9631515 0.3886999 0.6570746 0.87073300 1.00000 0.00000             
O2    core 0.4060469 0.4266135 0.4916513 0.87073300 1.00000 0.00000             
O3    core 0.5751060 0.9587202 5/6       1.33043099 1.00000 0.00000             
O2    core 0.0346803 0.5885387 0.1591334 0.87073300 1.00000 0.00000             
O2    core 0.5568664 0.5764323 0.3436781 0.87073300 1.00000 0.00000             
O2    core 0.0315379 0.4394379 0.0110394 0.87073300 1.00000 0.00000             
O2    core 0.4115699 0.9487890 0.6795123 0.87073300 1.00000 0.00000             
O2    core 0.4501016 0.4078245 0.8466942 0.87073300 1.00000 0.00000             
O2    core 0.9651531 0.5409088 0.5092528 0.87073300 1.00000 0.00000             
O2    core 0.5893758 0.0257592 0.1783459 0.87073300 1.00000 0.00000             
O2    core 0.5836130 0.1601964 0.2522154 0.87073300 1.00000 0.00000             
O2    core 0.8277163 0.3988732 0.5831740 0.87073300 1.00000 0.00000             
O3    core 0.6025196 0.4036077 0.9145537 1.33043099 1.00000 0.00000             
O3    core 0.4101435 0.7951156 0.7480091 1.33043099 1.00000 0.00000             
O2    core 0.1707938 0.5817483 0.0847435 0.87073300 1.00000 0.00000             
O2    core 0.4150390 0.5718471 0.4169181 0.87073300 1.00000 0.00000             
F     core 0.4532560 0.8979299 0.2530292 0.56000000 1.00000 0.00000             
F     core 0.0866503 0.5285177 0.5842335 0.56000000 1.00000 0.00000             
F     core 0.4793847 0.5186026 0.9286949 0.56000000 1.00000 0.00000             
F     core 0.5240497 0.0356139 0.7605241 0.56000000 1.00000 0.00000             
F     core 0.9146013 0.4532973 0.0862982 0.56000000 1.00000 0.00000             
F     core 0.5445576 0.4401049 0.4192145 0.56000000 1.00000 0.00000             
O2    shel 0.9316877 0.0025118 0.0052592 -2.8707330 1.00000 0.00000             
O2    shel 0.9970970 0.9151702 0.3362091 -2.8707330 1.00000 0.00000             
O2    shel 0.0743372 0.0554426 0.6710410 -2.8707330 1.00000 0.00000             
O2    shel 0.0699918 0.9818096 0.5031973 -2.8707330 1.00000 0.00000             
O2    shel 0.0095863 0.0698764 0.8379928 -2.8707330 1.00000 0.00000             
O2    shel 0.9284250 0.9253651 0.1714164 -2.8707330 1.00000 0.00000             
O2    shel 0.3509453 0.5769003 0.3337620 -2.8707330 1.00000 0.00000             
O2    shel 0.4110684 0.7441288 0.6629832 -2.8707330 1.00000 0.00000             
O2    shel 0.2379847 0.6444150 0.0017017 -2.8707330 1.00000 0.00000             
O2    shel 0.6528870 0.4058868 0.8296113 -2.8707330 1.00000 0.00000             
O2    shel 0.5902245 0.2328319 0.1688767 -2.8707330 1.00000 0.00000             
O2    shel 0.7586673 0.3353100 0.5005949 -2.8707330 1.00000 0.00000             
O3    shel 0.5917044 0.3489076 0.0031435 -3.3304309 1.00000 0.00000             
O2    shel 0.7604355 0.3904800 0.6659682 -2.8707330 1.00000 0.00000             
O2    shel 0.6454317 0.2235908 0.3354679 -2.8707330 1.00000 0.00000             
O2    shel 0.4071771 0.6323487 0.4993688 -2.8707330 1.00000 0.00000             
O2    shel 0.2374159 0.5844679 0.1680239 -2.8707330 1.00000 0.00000             
O3    shel 0.3589049 0.7552653 0.8364827 -3.3304309 1.00000 0.00000             
O2    shel 0.1196273 0.2145309 0.9733667 -2.8707330 1.00000 0.00000             
O2    shel 0.7825438 0.8962473 0.3049240 -2.8707330 1.00000 0.00000             
O2    shel 0.0879261 0.8585182 0.6368285 -2.8707330 1.00000 0.00000             
O2    shel 0.8731515 0.7702058 0.4710061 -2.8707330 1.00000 0.00000             
O2    shel 0.2186888 0.0905226 0.8043445 -2.8707330 1.00000 0.00000             
O2    shel 0.9087650 0.1207605 0.1394204 -2.8707330 1.00000 0.00000             
O2    shel 0.2145263 0.1118735 0.3646805 -2.8707330 1.00000 0.00000             
O2    shel 0.9063892 0.7812766 0.0322120 -2.8707330 1.00000 0.00000             
O2    shel 0.8755112 0.0735654 0.6993055 -2.8707330 1.00000 0.00000             
O2    shel 0.7901667 0.8739813 0.8670756 -2.8707330 1.00000 0.00000             
O2    shel 0.0880056 0.1986716 0.5303227 -2.8707330 1.00000 0.00000             
O2    shel 0.1255141 0.9031950 0.1989321 -2.8707330 1.00000 0.00000             
O2    shel 0.9335228 0.8523873 0.2531171 -2.8707330 1.00000 0.00000             
O2    shel 0.1357527 0.0573573 0.5862261 -2.8707330 1.00000 0.00000             
O2    shel 0.9317881 0.0628258 0.9210409 -2.8707330 1.00000 0.00000             
O2    shel 0.0688077 0.1342915 0.7532308 -2.8707330 1.00000 0.00000             
O2    shel 0.8677183 0.9269403 0.0882000 -2.8707330 1.00000 0.00000             
O2    shel 0.0683388 0.9210240 0.4188965 -2.8707330 1.00000 0.00000             
O2    shel 0.9076687 0.2020490 0.9846628 -2.8707330 1.00000 0.00000             
O2    shel 0.7936345 0.6943081 0.3173882 -2.8707330 1.00000 0.00000             
O2    shel 0.2907758 0.0666403 0.6501095 -2.8707330 1.00000 0.00000             
O2    shel 0.0837921 0.7779025 0.4823515 -2.8707330 1.00000 0.00000             
O2    shel 0.2111866 0.2917839 0.8182310 -2.8707330 1.00000 0.00000             
O2    shel 0.7075901 0.9074045 0.1514455 -2.8707330 1.00000 0.00000             
O2    shel 0.2022665 0.8988218 0.3529203 -2.8707330 1.00000 0.00000             
O2    shel 0.7112906 0.8061430 0.0220639 -2.8707330 1.00000 0.00000             
O2    shel 0.0868644 0.2767557 0.6840962 -2.8707330 1.00000 0.00000             
O2    shel 0.8128875 0.0935903 0.8534459 -2.8707330 1.00000 0.00000             
O2    shel 0.2898794 0.1886734 0.5192440 -2.8707330 1.00000 0.00000             
O2    shel 0.9131060 0.7025588 0.1860191 -2.8707330 1.00000 0.00000             
O2    shel 0.3287399 0.6504065 0.2511398 -2.8707330 1.00000 0.00000             
O2    shel 0.3357673 0.6515984 0.5817010 -2.8707330 1.00000 0.00000             
O2    shel 0.3391674 0.6658389 0.9196847 -2.8707330 1.00000 0.00000             
O2    shel 0.6664741 0.3189703 0.7488038 -2.8707330 1.00000 0.00000             
O2    shel 0.6605873 0.3286466 0.0859717 -2.8707330 1.00000 0.00000             
O2    shel 0.6663787 0.3143572 0.4182755 -2.8707330 1.00000 0.00000             
O3    shel 0.3656067 0.3204341 0.9733712 -3.3304309 1.00000 0.00000             
O2    shel 0.6585971 0.0276005 0.3038411 -2.8707330 1.00000 0.00000             
O2    shel 0.9585395 0.6035317 0.6353949 -2.8707330 1.00000 0.00000             
O2    shel 0.6185902 0.6462713 0.4695043 -2.8707330 1.00000 0.00000             
O3    shel 0.3276135 0.9521609 0.8054221 -3.3304309 1.00000 0.00000             
O2    shel 0.0401992 0.3752018 0.1373409 -2.8707330 1.00000 0.00000             
O2    shel 0.3378928 0.3664935 0.3661227 -2.8707330 1.00000 0.00000             
O2    shel 0.0407310 0.6590355 0.0331029 -2.8707330 1.00000 0.00000             
O2    shel 0.6203190 0.9364557 0.7010388 -2.8707330 1.00000 0.00000             
O2    shel 0.6708843 0.6168608 0.8683047 -2.8707330 1.00000 0.00000             
O2    shel 0.9553522 0.3210110 0.5317710 -2.8707330 1.00000 0.00000             
O2    shel 0.3799480 0.0348970 0.2005489 -2.8707330 1.00000 0.00000             
O2    shel 0.7793760 0.3083253 0.0166664 -2.8707330 1.00000 0.00000             
O2    shel 0.6868538 0.4554063 0.3489589 -2.8707330 1.00000 0.00000             
O2    shel 0.5287918 0.1971698 0.6818513 -2.8707330 1.00000 0.00000             
O2    shel 0.2157396 0.6723057 0.5133063 -2.8707330 1.00000 0.00000             
O2    shel 0.3203834 0.5267698 0.8519873 -2.8707330 1.00000 0.00000             
O2    shel 0.4687956 0.7739091 0.1821453 -2.8707330 1.00000 0.00000             
O2    shel 0.3096542 0.7683523 0.3211428 -2.8707330 1.00000 0.00000             
O2    shel 0.4723518 0.6866675 0.9892336 -2.8707330 1.00000 0.00000             
O2    shel 0.2160326 0.5144232 0.6520719 -2.8707330 1.00000 0.00000             
O2    shel 0.6905320 0.2101257 0.8195324 -2.8707330 1.00000 0.00000             
O2    shel 0.5276052 0.2958824 0.4878554 -2.8707330 1.00000 0.00000             
O2    shel 0.7823195 0.4648416 0.1550706 -2.8707330 1.00000 0.00000             
O2    shel 0.7947164 0.5307262 0.0318584 -2.8707330 1.00000 0.00000             
O2    shel 0.4652070 0.2469889 0.3656117 -2.8707330 1.00000 0.00000             
O2    shel 0.7294785 0.1808848 0.6999116 -2.8707330 1.00000 0.00000             
O2    shel 0.2015618 0.4502432 0.5295097 -2.8707330 1.00000 0.00000             
O2    shel 0.5383997 0.7279328 0.8687614 -2.8707330 1.00000 0.00000             
O2    shel 0.2613184 0.7876772 0.1990732 -2.8707330 1.00000 0.00000             
O2    shel 0.5313980 0.7802620 0.3042294 -2.8707330 1.00000 0.00000             
O2    shel 0.2705066 0.4664935 0.9719348 -2.8707330 1.00000 0.00000             
O2    shel 0.2062062 0.7250556 0.6348969 -2.8707330 1.00000 0.00000             
O2    shel 0.4708939 0.1938196 0.8026743 -2.8707330 1.00000 0.00000             
O2    shel 0.7375750 0.5180278 0.4708371 -2.8707330 1.00000 0.00000             
O2    shel 0.7927326 0.2556357 0.1379427 -2.8707330 1.00000 0.00000             
O2    shel 0.2514206 0.3269428 0.9020992 -2.8707330 1.00000 0.00000             
O2    shel 0.6677240 0.9021199 0.2341363 -2.8707330 1.00000 0.00000             
O2    shel 0.0847489 0.7407212 0.5654115 -2.8707330 1.00000 0.00000             
O2    shel 0.7552573 0.6553627 0.4002671 -2.8707330 1.00000 0.00000             
O2    shel 0.3319447 0.0706017 0.7335133 -2.8707330 1.00000 0.00000             
O2    shel 0.9120078 0.2395714 0.0678629 -2.8707330 1.00000 0.00000             
O2    shel 0.3286398 0.2276471 0.4358725 -2.8707330 1.00000 0.00000             
O2    shel 0.9112824 0.6649188 0.1026917 -2.8707330 1.00000 0.00000             
O2    shel 0.7536170 0.0686423 0.7700424 -2.8707330 1.00000 0.00000             
O2    shel 0.6741999 0.7496563 0.9383050 -2.8707330 1.00000 0.00000             
O2    shel 0.0863463 0.3142813 0.6006814 -2.8707330 1.00000 0.00000             
O2    shel 0.2421429 0.9028711 0.2697950 -2.8707330 1.00000 0.00000             
O3    shel 0.6004530 0.5727061 0.9976239 -3.3304309 1.00000 0.00000             
O2    shel 0.4394086 0.0152977 0.3227981 -2.8707330 1.00000 0.00000             
O2    shel 0.9685354 0.3941889 0.6536365 -2.8707330 1.00000 0.00000             
O2    shel 0.4109830 0.4262687 0.4882481 -2.8707330 1.00000 0.00000             
O3    shel 0.5797543 0.9678298 0.8295955 -3.3304309 1.00000 0.00000             
O2    shel 0.0293797 0.5834130 0.1557234 -2.8707330 1.00000 0.00000             
O2    shel 0.5570278 0.5719045 0.3470354 -2.8707330 1.00000 0.00000             
O2    shel 0.0266693 0.4393928 0.0144587 -2.8707330 1.00000 0.00000             
O2    shel 0.4147675 0.9531932 0.6822190 -2.8707330 1.00000 0.00000             
O2    shel 0.4492761 0.4113212 0.8495351 -2.8707330 1.00000 0.00000             
O2    shel 0.9698139 0.5410676 0.5126267 -2.8707330 1.00000 0.00000             
O2    shel 0.5848266 0.0208506 0.1816534 -2.8707330 1.00000 0.00000             
O2    shel 0.5780979 0.1491334 0.2521998 -2.8707330 1.00000 0.00000             
O2    shel 0.8390073 0.4043454 0.5832015 -2.8707330 1.00000 0.00000             
O3    shel 0.5973060 0.4111164 0.9127992 -3.3304309 1.00000 0.00000             
O3    shel 0.4173825 0.8076860 0.7461928 -3.3304309 1.00000 0.00000             
O2    shel 0.1593827 0.5761162 0.0847880 -2.8707330 1.00000 0.00000             
O2    shel 0.4204284 0.5661062 0.4169594 -2.8707330 1.00000 0.00000             
F     shel 0.4531155 0.8975022 0.2531870 -1.5600000 1.00000 0.00000             
F     shel 0.0866481 0.5285759 0.5844125 -1.5600000 1.00000 0.00000             
F     shel 0.4833252 0.5122380 0.9312112 -1.5600000 1.00000 0.00000             
F     shel 0.5177881 0.0253564 0.7631704 -1.5600000 1.00000 0.00000             
F     shel 0.9151533 0.4534523 0.0864416 -1.5600000 1.00000 0.00000             
F     shel 0.5447883 0.4399895 0.4193842 -1.5600000 1.00000 0.00000             
totalenergy         -7733.7509489894 eV
species  10
Si     core    4.000000                  
O1     core    1.733957                  
O1     shel   -3.733957                  
O2     core    0.870733                  
O2     shel   -2.870733                  
O3     core    1.330431                  
O3     shel   -3.330431                  
F      core    0.560000                  
F      shel   -1.560000                  
Ge     core    4.000000                  
buck     
Si    core O1    shel  1315.24780     0.317759  10.14112      0.00 16.00
buck     
Si    core O2    shel  1315.24780     0.317759  10.14112      0.00 16.00
buck     
Si    core O3    shel  1315.24780     0.317759  10.14112      0.00 16.00
buck     
Ge    core O1    shel  1497.39960     0.325646  16.80860      0.00 16.00
buck     
Ge    core O2    shel  1497.39960     0.325646  16.80860      0.00 16.00
buck     
Ge    core O3    shel  1497.39960     0.325646  16.80860      0.00 16.00
buck     
O1    shel O1    shel  22764.0000     0.149000  10.93704      0.00 16.00
buck     
O1    shel O2    shel  22764.0000     0.149000  10.93704      0.00 16.00
buck     
O1    shel O3    shel  22764.0000     0.149000  10.93704      0.00 16.00
buck     
O2    shel O2    shel  22764.0000     0.149000  10.93704      0.00 16.00
buck     
O2    shel O3    shel  22764.0000     0.149000  10.93704      0.00 16.00
buck     
O3    shel O3    shel  22764.0000     0.149000  10.93704      0.00 16.00
buck     
Si    core F     shel  976.828870     0.282000  0.000000      0.00 16.00
buck     
Ge    core F     shel  681.472880     0.320000  0.000000      0.00 16.00
buck     
F     shel F     shel  540.397610     0.262490  0.000000      0.00 16.00
buck     
O1    shel F     shel  1675.00000     0.268000  0.000000      0.00 16.00
buck     
O2    shel F     shel  1675.00000     0.268000  0.000000      0.00 16.00
buck     
O3    shel F     shel  1675.00000     0.268000  0.000000      0.00 16.00
spring
O2     75.969800    
spring
O3     128.14279    
spring
O1     180.31577    
spring
F      33.452757    
three       regular  
Si    core O1    shel O1    shel 1.2614      109.47000 &
  0.000  1.900  0.000  1.900  0.000  3.500
three       regular  
Si    core O1    shel O2    shel 1.2614      109.47000 &
  0.000  1.900  0.000  1.900  0.000  3.500
three       regular  
Si    core O2    shel O2    shel 1.2614      109.47000 &
  0.000  1.900  0.000  1.900  0.000  3.500
cutp     16.00000    1.00000
stepmx opt     0.100000
maxcyc opt     5000
dump every      1 c0060.res                                                     
output cif c0060.cif                                                     
