opti conv qok
stepmx     0.01
maxcyc opt 5000
cell
  11.95938  11.98543  29.57853  90.15768  90.08320 120.15415
fractional
Ge   core    0.31227   0.37570   0.44478
Si   core    0.23489   0.32378   0.77906
Si   core    0.29111   0.29646   0.10987
Si   core    0.91074   0.62257   0.94371
Si   core    0.98696   0.67658   0.27635
Si   core    0.93774   0.70480   0.61211
Si   core    0.99065   0.69952   0.71214
Si   core    0.94034   0.62688   0.37687
Si   core    0.91171   0.67762   0.04408
Si   core    0.23506   0.29936   0.20954
Si   core    0.28871   0.37966   0.87913
Ge   core    0.31528   0.31796   0.54450
Si   core    0.14249   0.41718   0.37628
Si   core    0.19637   0.11111   0.71574
Si   core    0.49941   0.46944   0.04453
Si   core    0.08134   0.58345   0.87843
Si   core    0.02817   0.88592   0.21112
Si   core    0.73158   0.53154   0.54476
Si   core    0.02982   0.52892   0.77708
Si   core    0.73322   0.59006   0.44240
Si   core    0.08314   0.88580   0.11012
Si   core    0.19090   0.46603   0.27484
Si   core    0.49963   0.41746   0.94344
Si   core    0.14435   0.11563   0.61459
Si   core    0.90963   0.39808   0.26225
Si   core    0.21729   0.90820   0.59835
Si   core    0.70852   0.69855   0.92911
Si   core    0.31158   0.60124   0.76358
Si   core    0.01163   0.09422   0.09454
Ge   core    0.51569   0.29939   0.42776
Si   core    0.00983   0.30257   0.89292
Si   core    0.51656   0.60303   0.55997
Si   core    0.30939   0.09749   0.22659
Si   core    0.21957   0.70116   0.38982
Si   core    0.70916   0.39869   0.05817
Si   core    0.91422   0.90044   0.72867
Si   core    0.86322   0.34461   0.36254
Si   core    0.27316   0.91016   0.69869
Si   core    0.70142   0.74857   0.02941
Si   core    0.36076   0.66029   0.86382
Si   core    0.95433   0.08887   0.19457
Ge   core    0.52954   0.24536   0.52981
Si   core    0.95290   0.25040   0.79266
Si   core    0.52471   0.66367   0.45815
Si   core    0.36265   0.08762   0.12664
Si   core    0.26750   0.74476   0.28908
Si   core    0.70136   0.34055   0.95803
Si   core    0.86494   0.91159   0.62867
Si   core    0.58777   0.11894   0.37788
Si   core    0.49126   0.84814   0.71273
Si   core    0.76347   0.02839   0.04393
Si   core    0.64087   0.87850   0.87860
Si   core    0.73769   0.15192   0.20911
Si   core    0.46325   0.96849   0.54630
Si   core    0.73457   0.96968   0.77808
Si   core    0.46503   0.88113   0.44445
Si   core    0.64330   0.15154   0.10874
Si   core    0.49144   0.02603   0.27582
Si   core    0.76260   0.12210   0.94353
Si   core    0.58637   0.85017   0.61217
O2   core    0.54900   0.00697   0.41479
O2   core    0.61464   0.92858   0.74461
O2   core    0.68260   0.07084   0.07556
O2   core    0.68267   0.00064   0.91081
O3   core    0.61510   0.06519   0.23885
O2   core    0.54139   0.92316   0.57802
O2   core    0.95253   0.57573   0.74414
O2   core    0.03455   0.76092   0.07722
O2   core    0.86058   0.66908   0.41102
O2   core    0.27044   0.42178   0.24208
O3   core    0.19224   0.23905   0.58414
O2   core    0.37275   0.34037   0.91151
O3   core    0.18289   0.33892   0.40828
O2   core    0.37418   0.41885   0.07699
O2   core    0.27399   0.23700   0.74792
O2   core    0.03333   0.66075   0.91076
O2   core    0.85525   0.58316   0.57797
O2   core    0.94890   0.76112   0.24353
O2   core    0.74092   0.22031   0.38492
O2   core    0.39988   0.91061   0.71864
O2   core    0.70013   0.87418   0.04947
O2   core    0.48643   0.78734   0.88412
O2   core    0.83050   0.09129   0.21493
O2   core    0.53728   0.12359   0.55073
O2   core    0.82662   0.12371   0.77242
O2   core    0.53480   0.79632   0.44032
O2   core    0.48793   0.08621   0.10625
O3   core    0.39028   0.86376   0.26652
O2   core    0.69978   0.21330   0.93817
O2   core    0.74127   0.91682   0.60851
O2   core    0.54100   0.86094   0.66188
O2   core    0.75047   0.06807   0.99355
O3   core    0.55739   0.05484   0.32893
O2   core    0.69175   0.14359   0.15796
O2   core    0.46381   0.92235   0.49577
O2   core    0.67947   0.93093   0.82816
O3   core    0.51429   0.19639   0.38546
O2   core    0.40986   0.69669   0.72506
O2   core    0.91558   0.09688   0.05608
O2   core    0.71050   0.79671   0.89081
O2   core    0.81195   0.30230   0.22365
O2   core    0.31299   0.90643   0.55990
O2   core    0.81600   0.89870   0.76701
O2   core    0.31611   0.79858   0.42841
O2   core    0.71082   0.30245   0.09621
O3   core    0.40515   0.10355   0.26614
O2   core    0.91431   0.20501   0.93138
O2   core    0.52358   0.69987   0.59949
O2   core    0.93430   0.64314   0.66161
O2   core    0.96925   0.67958   0.99384
O2   core    0.93407   0.68129   0.32690
O2   core    0.29208   0.35641   0.15955
O1   core    0.23389   0.30616   0.49520
O2   core    0.29093   0.32337   0.82918
O2   core    0.98554   0.33444   0.37922
O2   core    0.28284   0.04127   0.71816
O2   core    0.56860   0.62587   0.04757
O2   core    0.23806   0.67084   0.88138
O2   core    0.94200   0.95596   0.21315
O2   core    0.66177   0.37575   0.54502
O2   core    0.94276   0.37240   0.77424
O2   core    0.65804   0.67094   0.44188
O2   core    0.23990   0.95489   0.10802
O2   core    0.27638   0.62149   0.27180
O2   core    0.56846   0.33025   0.93983
O2   core    0.98726   0.04397   0.61132
O1   core    0.37283   0.29111   0.41619
O2   core    0.31046   0.46651   0.75636
O2   core    0.14754   0.22694   0.08733
O2   core    0.84240   0.69771   0.92171
O2   core    0.91018   0.53230   0.25465
O2   core    0.08147   0.77473   0.59014
O2   core    0.91493   0.76644   0.73493
O2   core    0.08519   0.70094   0.39816
O2   core    0.84309   0.53362   0.06561
O2   core    0.30984   0.23215   0.23230
O2   core    0.14462   0.30422   0.90079
O3   core    0.38489   0.47330   0.56759
O3   core    0.39889   0.54572   0.43757
O2   core    0.07844   0.24892   0.77351
O2   core    0.36578   0.21481   0.10695
O2   core    0.82855   0.46622   0.93890
O2   core    0.14252   0.74924   0.27079
O2   core    0.86021   0.78367   0.60813
O2   core    0.14713   0.78192   0.71688
O2   core    0.86238   0.47073   0.38197
O2   core    0.82876   0.75069   0.04871
O2   core    0.07910   0.21662   0.21380
O2   core    0.36208   0.53585   0.88380
O3   core    0.40451   0.24001   0.55087
O2   core    0.83714   0.32467   0.30844
O2   core    0.29145   0.91125   0.64455
O2   core    0.70387   0.76865   0.97533
O2   core    0.38213   0.67718   0.80972
O2   core    0.93626   0.08958   0.14043
O3   core    0.52455   0.22289   0.47639
O2   core    0.93481   0.23098   0.84675
O2   core    0.52113   0.67249   0.51280
O2   core    0.38183   0.08948   0.18103
O2   core    0.29124   0.77187   0.34322
O2   core    0.70359   0.32312   0.01205
O2   core    0.84335   0.90587   0.68272
O2   core    0.20542   0.56194   0.39792
O2   core    0.05429   0.02528   0.73811
O2   core    0.58352   0.41213   0.06716
O2   core    0.02348   0.44201   0.90113
O2   core    0.16931   0.97105   0.23462
O2   core    0.63666   0.57784   0.56486
O2   core    0.17201   0.58734   0.75457
O3   core    0.64802   0.45155   0.41982
O2   core    0.02554   0.96859   0.08648
O2   core    0.04742   0.40821   0.25330
O2   core    0.58261   0.55873   0.92032
O2   core    0.20367   0.03381   0.59040
O2   core    0.19704   0.16549   0.66566
O2   core    0.44532   0.41612   0.99393
O2   core    0.19308   0.41461   0.32525
O2   core    0.02863   0.83170   0.16055
O2   core    0.77866   0.58377   0.49387
O2   core    0.02875   0.58294   0.82756
F    core    0.06323   0.90216   0.66289
F    core    0.70749   0.54775   0.99352
F    core    0.06162   0.55013   0.32595
F    core    0.16169   0.09428   0.16038
F    core    0.47756   0.42184   0.48882
F    core    0.16064   0.45206   0.82791
O2   shel    0.54364   0.00474   0.41418
O2   shel    0.61414   0.92410   0.74477
O2   shel    0.68728   0.07505   0.07571
O2   shel    0.68694   0.00053   0.91087
O3   shel    0.61769   0.07127   0.23885
O2   shel    0.53770   0.91998   0.57832
O2   shel    0.96436   0.58369   0.74421
O2   shel    0.02686   0.76510   0.07716
O2   shel    0.85541   0.65682   0.41087
O2   shel    0.25857   0.41357   0.24206
O3   shel    0.19645   0.23196   0.58437
O2   shel    0.37714   0.35245   0.91143
O3   shel    0.18828   0.35012   0.40760
O2   shel    0.37862   0.41148   0.07703
O2   shel    0.26192   0.23289   0.74780
O2   shel    0.02570   0.64886   0.91081
O2   shel    0.85043   0.58987   0.57789
O2   shel    0.96088   0.76525   0.24358
O2   shel    0.73796   0.22291   0.38189
O2   shel    0.39645   0.90390   0.71598
O2   shel    0.70697   0.87753   0.04684
O2   shel    0.48984   0.78384   0.88145
O2   shel    0.83383   0.09752   0.21215
O2   shel    0.52869   0.11932   0.54821
O2   shel    0.82993   0.12046   0.77509
O2   shel    0.52629   0.79167   0.44259
O2   shel    0.49152   0.09332   0.10860
O3   shel    0.38620   0.86514   0.26956
O2   shel    0.70661   0.21678   0.94075
O2   shel    0.73734   0.90910   0.61095
O2   shel    0.54054   0.85828   0.66197
O2   shel    0.75330   0.06973   0.99355
O3   shel    0.55489   0.05902   0.32945
O2   shel    0.69132   0.14545   0.15804
O2   shel    0.46394   0.92298   0.49574
O2   shel    0.68138   0.92941   0.82816
O3   shel    0.52205   0.19603   0.38782
O2   shel    0.40850   0.70305   0.72766
O2   shel    0.90926   0.08936   0.05871
O2   shel    0.70292   0.79539   0.89341
O2   shel    0.81416   0.29630   0.22611
O2   shel    0.31907   0.91322   0.56242
O2   shel    0.81744   0.90635   0.76427
O2   shel    0.32208   0.79739   0.42616
O2   shel    0.70343   0.29632   0.09360
O3   shel    0.40303   0.09674   0.26319
O2   shel    0.90797   0.20625   0.92872
O2   shel    0.52967   0.70601   0.59673
O2   shel    0.94031   0.65508   0.66166
O2   shel    0.95745   0.67357   0.99383
O2   shel    0.93998   0.67530   0.32690
O2   shel    0.28616   0.34444   0.15959
O1   shel    0.24571   0.31196   0.49530
O2   shel    0.28490   0.32926   0.82914
O2   shel    0.98817   0.34415   0.37706
O2   shel    0.27293   0.03466   0.71587
O2   shel    0.57536   0.62261   0.04536
O2   shel    0.23479   0.66071   0.87923
O2   shel    0.95221   0.96262   0.21099
O2   shel    0.65572   0.37890   0.54346
O2   shel    0.95275   0.37573   0.77646
O2   shel    0.65226   0.66176   0.44360
O2   shel    0.23654   0.96162   0.11019
O2   shel    0.26630   0.61807   0.27398
O2   shel    0.57530   0.34032   0.94210
O2   shel    0.98998   0.03687   0.61353
O1   shel    0.37991   0.29788   0.41927
O2   shel    0.30281   0.46598   0.75945
O2   shel    0.14799   0.22008   0.09045
O2   shel    0.83537   0.69005   0.92477
O2   shel    0.91803   0.53313   0.25771
O2   shel    0.08064   0.78130   0.59329
O2   shel    0.92262   0.77363   0.73191
O2   shel    0.08407   0.69327   0.39507
O2   shel    0.83604   0.53423   0.06258
O2   shel    0.30199   0.22501   0.22929
O2   shel    0.14529   0.31190   0.89770
O3   shel    0.39363   0.47535   0.56498
O3   shel    0.40632   0.54614   0.44031
O2   shel    0.08111   0.25696   0.77612
O2   shel    0.35755   0.20959   0.10935
O2   shel    0.82325   0.46889   0.94144
O2   shel    0.13942   0.74093   0.27332
O2   shel    0.86874   0.78902   0.61066
O2   shel    0.14444   0.78732   0.71444
O2   shel    0.87060   0.47361   0.37942
O2   shel    0.82351   0.74274   0.04618
O2   shel    0.08203   0.21133   0.21127
O2   shel    0.35419   0.53307   0.88118
O3   shel    0.41052   0.24679   0.54821
O2   shel    0.84721   0.33427   0.30925
O2   shel    0.28171   0.91081   0.64545
O2   shel    0.70408   0.75914   0.97620
O2   shel    0.37246   0.66740   0.81058
O2   shel    0.94614   0.08997   0.14131
O3   shel    0.52428   0.23116   0.47791
O2   shel    0.94460   0.24057   0.84585
O2   shel    0.52100   0.66418   0.51217
O2   shel    0.37260   0.09005   0.18000
O2   shel    0.28145   0.76190   0.34257
O2   shel    0.70394   0.33294   0.01114
O2   shel    0.85304   0.90588   0.68180
O2   shel    0.20049   0.56255   0.39486
O2   shel    0.05403   0.02060   0.73476
O2   shel    0.58844   0.41689   0.06381
O2   shel    0.02823   0.44180   0.89787
O2   shel    0.16956   0.97585   0.23132
O2   shel    0.63413   0.57534   0.56215
O2   shel    0.17218   0.58256   0.75788
O3   shel    0.64584   0.45340   0.42279
O2   shel    0.03020   0.97369   0.08980
O2   shel    0.04761   0.41334   0.25652
O2   shel    0.58770   0.55909   0.92365
O2   shel    0.19907   0.02827   0.59364
O2   shel    0.19150   0.15449   0.66570
O2   shel    0.45663   0.42184   0.99395
O2   shel    0.18774   0.42030   0.32508
O2   shel    0.03419   0.84286   0.16055
O2   shel    0.76910   0.57895   0.49396
O2   shel    0.03426   0.57741   0.82760
F    shel    0.06277   0.90151   0.66282
F    shel    0.70774   0.54785   0.99348
F    shel    0.06123   0.55051   0.32594
F    shel    0.16193   0.09460   0.16039
F    shel    0.47144   0.41811   0.48805
F    shel    0.16088   0.45184   0.82787
species
Si    core  4.00000
O1    core  1.733957
O1    shel -3.733957
O2    core  0.870733
O2    shel -2.870733
O3    core  1.330431
O3    shel -3.330431
F     core  0.56
F     shel -1.56
Ge    core  4.0
buck
Si core    O1 shel     1315.2478 0.317759 10.141118 0.0 16.0
Si core    O2 shel     1315.2478 0.317759 10.141118 0.0 16.0
Si core    O3 shel     1315.2478 0.317759 10.141118 0.0 16.0
Ge core    O1 shel     1497.3996 0.325646 16.808599 0.0 16.0
Ge core    O2 shel     1497.3996 0.325646 16.808599 0.0 16.0
Ge core    O3 shel     1497.3996 0.325646 16.808599 0.0 16.0
O1 shel    O1 shel    22764.0000 0.149000 10.937044 0.0 16.0
O1 shel    O2 shel    22764.0000 0.149000 10.937044 0.0 16.0
O1 shel    O3 shel    22764.0000 0.149000 10.937044 0.0 16.0
O2 shel    O2 shel    22764.0000 0.149000 10.937044 0.0 16.0
O2 shel    O3 shel    22764.0000 0.149000 10.937044 0.0 16.0
O3 shel    O3 shel    22764.0000 0.149000 10.937044 0.0 16.0
Si core     F shel     976.82887 0.282000 0.0       0.0 16.0
Ge core     F shel     681.47288 0.320000 0.0       0.0 16.0
F  shel     F shel     540.39761 0.262490 0.0       0.0 16.0
O1 shel     F shel    1675.00000 0.268000 0.0       0.0 16.0
O2 shel     F shel    1675.00000 0.268000 0.0       0.0 16.0
O3 shel     F shel    1675.00000 0.268000 0.0       0.0 16.0
spring
O2     75.969800
O3    128.142790
O1    180.315770
F      33.452757
three
Si core O1 shel O1 shel 1.2614 109.47 1.9 1.9 3.5
Si core O1 shel O2 shel 1.2614 109.47 1.9 1.9 3.5
Si core O2 shel O2 shel 1.2614 109.47 1.9 1.9 3.5
cutp             16.0 1.0
cuts 0.8
output cif out.cif
dump every 1     out.res
