single

# Created by GDIS version 0.90.0
#

switch rfo gnorm 0.001000

name c0271_11

cell
11.902100 11.902100 29.692000  90.000000 90.000000 120.000000
fractional
Ge   core     0.312273    0.375700    0.444775
Si   core     0.236973    0.323900    0.778108
Si   core     0.288773    0.300400    0.111442
Si   core     0.913073    0.624300    0.944775
Si   core     0.988373    0.676100    0.278108
Si   core     0.936573    0.699600    0.611442
Si   core     0.988373    0.699600    0.710328
Si   core     0.936573    0.624300    0.376995
Si   core     0.913073    0.676100    0.043662
Si   core     0.236973    0.300400    0.210328
Si   core     0.288773    0.375700    0.876995
Ge   core     0.312273    0.323900    0.543662
Si   core     0.142973    0.413400    0.377755
Si   core     0.199273    0.116900    0.711088
Si   core     0.495773    0.469700    0.044422
Si   core     0.082373    0.586600    0.877755
Si   core     0.026073    0.883100    0.211088
Si   core     0.729573    0.530300    0.544422
Si   core     0.026073    0.530300    0.777348
Si   core     0.729573    0.586600    0.444015
Si   core     0.082373    0.883100    0.110682
Si   core     0.199273    0.469700    0.277348
Si   core     0.495773    0.413400    0.944015
Si   core     0.142973    0.116900    0.610682
Si   core     0.911473    0.394300    0.262075
Si   core     0.218373    0.904500    0.595408
Si   core     0.708173    0.701200    0.928742
Si   core     0.313873    0.605700    0.762075
Si   core     0.006973    0.095500    0.095408
Ge   core     0.517173    0.298800    0.428742
Si   core     0.006973    0.298800    0.893028
Si   core     0.517173    0.605700    0.559695
Si   core     0.313873    0.095500    0.226362
Ge   core     0.218373    0.701200    0.393028
Si   core     0.708173    0.394300    0.059695
Si   core     0.911473    0.904500    0.726362
Si   core     0.861173    0.334900    0.362985
Si   core     0.277773    0.913600    0.696318
Si   core     0.699073    0.751500    0.029652
Si   core     0.364173    0.665100    0.862985
Si   core     0.947573    0.086400    0.196318
Si   core     0.526273    0.248500    0.529652
Si   core     0.947573    0.248500    0.792118
Si   core     0.526273    0.665100    0.458785
Si   core     0.364173    0.086400    0.125452
Si   core     0.277773    0.751500    0.292118
Si   core     0.699073    0.334900    0.958785
Si   core     0.861173    0.913600    0.625452
Si   core     0.582873    0.122900    0.377855
Si   core     0.489773    0.847300    0.711188
Si   core     0.765373    0.029800    0.044522
Si   core     0.642473    0.877100    0.877855
Si   core     0.735573    0.152700    0.211188
Si   core     0.459973    0.970200    0.544522
Si   core     0.735573    0.970200    0.777248
Si   core     0.459973    0.877100    0.443915
Si   core     0.642473    0.152700    0.110582
Si   core     0.489773    0.029800    0.277248
Si   core     0.765373    0.122900    0.943915
Si   core     0.582873    0.847300    0.610582
O    core     0.536673    0.000000    0.410885
O    core     0.612673    0.924000    0.744218
O    core     0.688673    0.076000    0.077552
O    core     0.688673    0.000000    0.910885
O    core     0.612673    0.076000    0.244218
O    core     0.536673    0.924000    0.577552
O    core     0.949073    0.581000    0.743455
O    core     0.031673    0.755400    0.076788
O    core     0.857273    0.663600    0.410122
O    core     0.276273    0.419000    0.243455
O    core     0.193673    0.244600    0.576788
O    core     0.368073    0.336400    0.910122
O    core     0.193673    0.336400    0.411648
O    core     0.368073    0.419000    0.078315
O    core     0.276273    0.244600    0.744982
O    core     0.031673    0.663600    0.911648
O    core     0.857273    0.581000    0.578315
O    core     0.949073    0.755400    0.244982
O    core     0.743773    0.214200    0.382725
O    core     0.398473    0.916900    0.716058
O    core     0.695773    0.868900    0.049392
O    core     0.481573    0.785800    0.882725
O    core     0.826873    0.083100    0.216058
O    core     0.529573    0.131100    0.549392
O    core     0.826873    0.131100    0.772378
O    core     0.529573    0.785800    0.439045
O    core     0.481573    0.083100    0.105712
O    core     0.398473    0.868900    0.272378
O    core     0.695773    0.214200    0.939045
O    core     0.743773    0.916900    0.605712
O    core     0.541473    0.857600    0.660885
O    core     0.755073    0.071200    0.994218
O    core     0.541473    0.071200    0.327552
O    core     0.683873    0.142400    0.160885
O    core     0.470273    0.928800    0.494218
O    core     0.683873    0.928800    0.827552
O    core     0.510873    0.203600    0.389535
O    core     0.409073    0.694600    0.722868
O    core     0.918073    0.101800    0.056202
O    core     0.714473    0.796400    0.889535
O    core     0.816273    0.305400    0.222868
O    core     0.307273    0.898200    0.556202
O    core     0.816273    0.898200    0.765568
O    core     0.307273    0.796400    0.432235
O    core     0.714473    0.305400    0.098902
O    core     0.409073    0.101800    0.265568
O    core     0.918073    0.203600    0.932235
O    core     0.510873    0.694600    0.598902
O    core     0.931373    0.637600    0.660885
O    core     0.975073    0.681100    0.994218
O    core     0.931573    0.681300    0.327552
O    core     0.293973    0.362400    0.160885
O    core     0.250273    0.318900    0.494218
O    core     0.293773    0.318700    0.827552
O    core     0.982973    0.326300    0.379865
O    core     0.286373    0.044000    0.713198
O    core     0.568673    0.629700    0.046532
O    core     0.242373    0.673700    0.879865
O    core     0.938973    0.956000    0.213198
O    core     0.656673    0.370300    0.546532
O    core     0.938973    0.370300    0.775238
O    core     0.656673    0.673700    0.441905
O    core     0.242373    0.956000    0.108572
O    core     0.286373    0.629700    0.275238
O    core     0.568673    0.326300    0.941905
O    core     0.982973    0.044000    0.608572
O    core     0.382073    0.300200    0.422235
O    core     0.312473    0.469200    0.755568
O    core     0.143473    0.230600    0.088902
O    core     0.843273    0.699800    0.922235
O    core     0.912873    0.530800    0.255568
O    core     0.081873    0.769400    0.588902
O    core     0.912873    0.769400    0.732868
O    core     0.081873    0.699800    0.399535
O    core     0.843273    0.530800    0.066202
O    core     0.312473    0.230600    0.232868
O    core     0.143473    0.300200    0.899535
O    core     0.382073    0.469200    0.566202
O    core     0.400373    0.529100    0.441845
O    core     0.083573    0.258600    0.775178
O    core     0.354073    0.212300    0.108512
O    core     0.824973    0.470900    0.941845
O    core     0.141773    0.741400    0.275178
O    core     0.871273    0.787700    0.608512
O    core     0.141773    0.787700    0.713258
O    core     0.871273    0.470900    0.379925
O    core     0.824973    0.741400    0.046592
O    core     0.083573    0.212300    0.213258
O    core     0.354073    0.529100    0.879925
O    core     0.400373    0.258600    0.546592
O    core     0.846473    0.322500    0.309555
O    core     0.290173    0.911300    0.642888
O    core     0.701373    0.766200    0.976222
O    core     0.378873    0.677500    0.809555
O    core     0.935173    0.088700    0.142888
O    core     0.523973    0.233800    0.476222
O    core     0.935173    0.233800    0.845548
O    core     0.523973    0.677500    0.512215
O    core     0.378873    0.088700    0.178882
O    core     0.290173    0.766200    0.345548
O    core     0.701373    0.322500    0.012215
O    core     0.846473    0.911300    0.678882
O    core     0.198573    0.559200    0.399225
O    core     0.053473    0.026700    0.732558
O    core     0.585973    0.414100    0.065892
O    core     0.026773    0.440800    0.899225
O    core     0.171873    0.973300    0.232558
O    core     0.639373    0.585900    0.565892
O    core     0.171873    0.585900    0.755878
O    core     0.639373    0.440800    0.422545
O    core     0.026773    0.973300    0.089212
O    core     0.053473    0.414100    0.255878
O    core     0.585973    0.559200    0.922545
O    core     0.198573    0.026700    0.589212
O    core     0.198273    0.171300    0.660885
O    core     0.441373    0.414300    0.994218
O    core     0.198373    0.414400    0.327552
O    core     0.027073    0.828700    0.160885
O    core     0.783973    0.585700    0.494218
O    core     0.026973    0.585600    0.827552
F    core     0.063673    0.902000    0.660885
F    core     0.710673    0.549000    0.994218
F    core     0.063673    0.549000    0.327552
F    core     0.161673    0.098000    0.160885
F    core     0.514673    0.451000    0.494218
F    core     0.161673    0.451000    0.827552
O    shel     0.536673    0.000000    0.410885
O    shel     0.612673    0.924000    0.744218
O    shel     0.688673    0.076000    0.077552
O    shel     0.688673    0.000000    0.910885
O    shel     0.612673    0.076000    0.244218
O    shel     0.536673    0.924000    0.577552
O    shel     0.949073    0.581000    0.743455
O    shel     0.031673    0.755400    0.076788
O    shel     0.857273    0.663600    0.410122
O    shel     0.276273    0.419000    0.243455
O    shel     0.193673    0.244600    0.576788
O    shel     0.368073    0.336400    0.910122
O    shel     0.193673    0.336400    0.411648
O    shel     0.368073    0.419000    0.078315
O    shel     0.276273    0.244600    0.744982
O    shel     0.031673    0.663600    0.911648
O    shel     0.857273    0.581000    0.578315
O    shel     0.949073    0.755400    0.244982
O    shel     0.743773    0.214200    0.382725
O    shel     0.398473    0.916900    0.716058
O    shel     0.695773    0.868900    0.049392
O    shel     0.481573    0.785800    0.882725
O    shel     0.826873    0.083100    0.216058
O    shel     0.529573    0.131100    0.549392
O    shel     0.826873    0.131100    0.772378
O    shel     0.529573    0.785800    0.439045
O    shel     0.481573    0.083100    0.105712
O    shel     0.398473    0.868900    0.272378
O    shel     0.695773    0.214200    0.939045
O    shel     0.743773    0.916900    0.605712
O    shel     0.541473    0.857600    0.660885
O    shel     0.755073    0.071200    0.994218
O    shel     0.541473    0.071200    0.327552
O    shel     0.683873    0.142400    0.160885
O    shel     0.470273    0.928800    0.494218
O    shel     0.683873    0.928800    0.827552
O    shel     0.510873    0.203600    0.389535
O    shel     0.409073    0.694600    0.722868
O    shel     0.918073    0.101800    0.056202
O    shel     0.714473    0.796400    0.889535
O    shel     0.816273    0.305400    0.222868
O    shel     0.307273    0.898200    0.556202
O    shel     0.816273    0.898200    0.765568
O    shel     0.307273    0.796400    0.432235
O    shel     0.714473    0.305400    0.098902
O    shel     0.409073    0.101800    0.265568
O    shel     0.918073    0.203600    0.932235
O    shel     0.510873    0.694600    0.598902
O    shel     0.931373    0.637600    0.660885
O    shel     0.975073    0.681100    0.994218
O    shel     0.931573    0.681300    0.327552
O    shel     0.293973    0.362400    0.160885
O    shel     0.250273    0.318900    0.494218
O    shel     0.293773    0.318700    0.827552
O    shel     0.982973    0.326300    0.379865
O    shel     0.286373    0.044000    0.713198
O    shel     0.568673    0.629700    0.046532
O    shel     0.242373    0.673700    0.879865
O    shel     0.938973    0.956000    0.213198
O    shel     0.656673    0.370300    0.546532
O    shel     0.938973    0.370300    0.775238
O    shel     0.656673    0.673700    0.441905
O    shel     0.242373    0.956000    0.108572
O    shel     0.286373    0.629700    0.275238
O    shel     0.568673    0.326300    0.941905
O    shel     0.982973    0.044000    0.608572
O    shel     0.382073    0.300200    0.422235
O    shel     0.312473    0.469200    0.755568
O    shel     0.143473    0.230600    0.088902
O    shel     0.843273    0.699800    0.922235
O    shel     0.912873    0.530800    0.255568
O    shel     0.081873    0.769400    0.588902
O    shel     0.912873    0.769400    0.732868
O    shel     0.081873    0.699800    0.399535
O    shel     0.843273    0.530800    0.066202
O    shel     0.312473    0.230600    0.232868
O    shel     0.143473    0.300200    0.899535
O    shel     0.382073    0.469200    0.566202
O    shel     0.400373    0.529100    0.441845
O    shel     0.083573    0.258600    0.775178
O    shel     0.354073    0.212300    0.108512
O    shel     0.824973    0.470900    0.941845
O    shel     0.141773    0.741400    0.275178
O    shel     0.871273    0.787700    0.608512
O    shel     0.141773    0.787700    0.713258
O    shel     0.871273    0.470900    0.379925
O    shel     0.824973    0.741400    0.046592
O    shel     0.083573    0.212300    0.213258
O    shel     0.354073    0.529100    0.879925
O    shel     0.400373    0.258600    0.546592
O    shel     0.846473    0.322500    0.309555
O    shel     0.290173    0.911300    0.642888
O    shel     0.701373    0.766200    0.976222
O    shel     0.378873    0.677500    0.809555
O    shel     0.935173    0.088700    0.142888
O    shel     0.523973    0.233800    0.476222
O    shel     0.935173    0.233800    0.845548
O    shel     0.523973    0.677500    0.512215
O    shel     0.378873    0.088700    0.178882
O    shel     0.290173    0.766200    0.345548
O    shel     0.701373    0.322500    0.012215
O    shel     0.846473    0.911300    0.678882
O    shel     0.198573    0.559200    0.399225
O    shel     0.053473    0.026700    0.732558
O    shel     0.585973    0.414100    0.065892
O    shel     0.026773    0.440800    0.899225
O    shel     0.171873    0.973300    0.232558
O    shel     0.639373    0.585900    0.565892
O    shel     0.171873    0.585900    0.755878
O    shel     0.639373    0.440800    0.422545
O    shel     0.026773    0.973300    0.089212
O    shel     0.053473    0.414100    0.255878
O    shel     0.585973    0.559200    0.922545
O    shel     0.198573    0.026700    0.589212
O    shel     0.198273    0.171300    0.660885
O    shel     0.441373    0.414300    0.994218
O    shel     0.198373    0.414400    0.327552
O    shel     0.027073    0.828700    0.160885
O    shel     0.783973    0.585700    0.494218
O    shel     0.026973    0.585600    0.827552
F    shel     0.063673    0.902000    0.660885
F    shel     0.710673    0.549000    0.994218
F    shel     0.063673    0.549000    0.327552
F    shel     0.161673    0.098000    0.160885
F    shel     0.514673    0.451000    0.494218
F    shel     0.161673    0.451000    0.827552

space
P 1

print 1
