single

# Created by GDIS version 0.90.0
#

switch rfo gnorm 0.001000

name c0292_6

cell
11.902100 11.902100 29.692000  90.000000 90.000000 120.000000
fractional
Ge   core     0.695518    0.386963    0.515477
Si   core     0.620218    0.335163    0.848811
Si   core     0.672018    0.311663    0.182144
Si   core     0.296318    0.635563    0.015477
Si   core     0.371618    0.687363    0.348810
Si   core     0.319818    0.710863    0.682144
Si   core     0.371618    0.710863    0.781030
Si   core     0.319818    0.635563    0.447697
Si   core     0.296318    0.687363    0.114364
Ge   core     0.620218    0.311663    0.281030
Si   core     0.672018    0.386963    0.947697
Si   core     0.695518    0.335163    0.614364
Ge   core     0.526218    0.424663    0.448457
Si   core     0.582518    0.128163    0.781790
Si   core     0.879018    0.480963    0.115124
Si   core     0.465618    0.597863    0.948457
Si   core     0.409318    0.894363    0.281790
Si   core     0.112818    0.541563    0.615124
Si   core     0.409318    0.541563    0.848050
Si   core     0.112818    0.597863    0.514717
Si   core     0.465618    0.894363    0.181384
Ge   core     0.582518    0.480963    0.348050
Si   core     0.879018    0.424663    0.014717
Si   core     0.526218    0.128163    0.681384
Si   core     0.294718    0.405563    0.332777
Si   core     0.601618    0.915763    0.666110
Si   core     0.091418    0.712463    0.999444
Si   core     0.697118    0.616963    0.832777
Si   core     0.390218    0.106763    0.166110
Si   core     0.900418    0.310063    0.499444
Si   core     0.390218    0.310063    0.963731
Si   core     0.900418    0.616963    0.630397
Si   core     0.697118    0.106763    0.297064
Si   core     0.601618    0.712463    0.463730
Si   core     0.091418    0.405563    0.130397
Si   core     0.294718    0.915763    0.797064
Si   core     0.244418    0.346163    0.433687
Si   core     0.661018    0.924863    0.767020
Si   core     0.082318    0.762763    0.100354
Si   core     0.747418    0.676363    0.933687
Si   core     0.330818    0.097663    0.267020
Si   core     0.909518    0.259763    0.600354
Si   core     0.330818    0.259763    0.862820
Si   core     0.909518    0.676363    0.529487
Si   core     0.747418    0.097663    0.196154
Si   core     0.661018    0.762763    0.362820
Si   core     0.082318    0.346163    0.029487
Si   core     0.244418    0.924863    0.696154
Si   core     0.966118    0.134163    0.448557
Si   core     0.873018    0.858563    0.781890
Si   core     0.148618    0.041063    0.115224
Si   core     0.025718    0.888363    0.948557
Si   core     0.118818    0.163963    0.281890
Si   core     0.843218    0.981463    0.615224
Si   core     0.118818    0.981463    0.847950
Si   core     0.843218    0.888363    0.514617
Si   core     0.025718    0.163963    0.181284
Si   core     0.873018    0.041063    0.347950
Si   core     0.148618    0.134163    0.014617
Si   core     0.966118    0.858563    0.681284
O    core     0.919918    0.011263    0.481587
O    core     0.995918    0.935263    0.814920
O    core     0.071918    0.087263    0.148254
O    core     0.071918    0.011263    0.981587
O    core     0.995918    0.087263    0.314920
O    core     0.919918    0.935263    0.648254
O    core     0.332318    0.592263    0.814157
O    core     0.414918    0.766663    0.147490
O    core     0.240518    0.674863    0.480824
O    core     0.659518    0.430263    0.314157
O    core     0.576918    0.255863    0.647490
O    core     0.751318    0.347663    0.980824
O    core     0.576918    0.347663    0.482351
O    core     0.751318    0.430263    0.149017
O    core     0.659518    0.255863    0.815684
O    core     0.414918    0.674863    0.982350
O    core     0.240518    0.592263    0.649017
O    core     0.332318    0.766663    0.315684
O    core     0.127018    0.225463    0.453427
O    core     0.781718    0.928163    0.786761
O    core     0.079018    0.880163    0.120094
O    core     0.864818    0.797063    0.953427
O    core     0.210118    0.094363    0.286761
O    core     0.912818    0.142363    0.620094
O    core     0.210118    0.142363    0.843080
O    core     0.912818    0.797063    0.509747
O    core     0.864818    0.094363    0.176414
O    core     0.781718    0.880163    0.343080
O    core     0.079018    0.225463    0.009747
O    core     0.127018    0.928163    0.676414
O    core     0.924718    0.868863    0.731587
O    core     0.138318    0.082463    0.064921
O    core     0.924718    0.082463    0.398254
O    core     0.067118    0.153663    0.231587
O    core     0.853518    0.940063    0.564920
O    core     0.067118    0.940063    0.898254
O    core     0.894118    0.214863    0.460237
O    core     0.792318    0.705863    0.793570
O    core     0.301318    0.113063    0.126904
O    core     0.097718    0.807663    0.960237
O    core     0.199518    0.316663    0.293570
O    core     0.690518    0.909463    0.626904
O    core     0.199518    0.909463    0.836271
O    core     0.690518    0.807663    0.502937
O    core     0.097718    0.316663    0.169604
O    core     0.792318    0.113063    0.336270
O    core     0.301318    0.214863    0.002937
O    core     0.894118    0.705863    0.669604
O    core     0.314618    0.648863    0.731587
O    core     0.358318    0.692363    0.064921
O    core     0.314818    0.692563    0.398254
O    core     0.677218    0.373663    0.231587
O    core     0.633518    0.330163    0.564920
O    core     0.677018    0.329963    0.898254
O    core     0.366218    0.337563    0.450567
O    core     0.669618    0.055263    0.783900
O    core     0.951918    0.640963    0.117234
O    core     0.625618    0.684963    0.950567
O    core     0.322218    0.967263    0.283900
O    core     0.039918    0.381563    0.617234
O    core     0.322218    0.381563    0.845940
O    core     0.039918    0.684963    0.512607
O    core     0.625618    0.967263    0.179274
O    core     0.669618    0.640963    0.345940
O    core     0.951918    0.337563    0.012607
O    core     0.366218    0.055263    0.679274
O    core     0.765318    0.311463    0.492937
O    core     0.695718    0.480463    0.826270
O    core     0.526718    0.241863    0.159604
O    core     0.226518    0.711063    0.992937
O    core     0.296118    0.542063    0.326270
O    core     0.465118    0.780663    0.659604
O    core     0.296118    0.780663    0.803570
O    core     0.465118    0.711063    0.470237
O    core     0.226518    0.542063    0.136904
O    core     0.695718    0.241863    0.303570
O    core     0.526718    0.311463    0.970237
O    core     0.765318    0.480463    0.636904
O    core     0.783618    0.540363    0.512547
O    core     0.466818    0.269863    0.845880
O    core     0.737318    0.223563    0.179214
O    core     0.208218    0.482163    0.012547
O    core     0.525018    0.752663    0.345880
O    core     0.254518    0.798963    0.679214
O    core     0.525018    0.798963    0.783960
O    core     0.254518    0.482163    0.450627
O    core     0.208218    0.752663    0.117294
O    core     0.466818    0.223563    0.283960
O    core     0.737318    0.540363    0.950627
O    core     0.783618    0.269863    0.617294
O    core     0.229718    0.333763    0.380257
O    core     0.673418    0.922563    0.713590
O    core     0.084618    0.777463    0.046924
O    core     0.762118    0.688763    0.880257
O    core     0.318418    0.099963    0.213590
O    core     0.907218    0.245063    0.546924
O    core     0.318418    0.245063    0.916250
O    core     0.907218    0.688763    0.582917
O    core     0.762118    0.099963    0.249584
O    core     0.673418    0.777463    0.416250
O    core     0.084618    0.333763    0.082917
O    core     0.229718    0.922563    0.749584
O    core     0.581818    0.570463    0.469927
O    core     0.436718    0.037963    0.803261
O    core     0.969218    0.425363    0.136594
O    core     0.410018    0.452063    0.969927
O    core     0.555118    0.984563    0.303261
O    core     0.022618    0.597163    0.636594
O    core     0.555118    0.597163    0.826581
O    core     0.022618    0.452063    0.493247
O    core     0.410018    0.984563    0.159914
O    core     0.436718    0.425363    0.326580
O    core     0.969218    0.570463    0.993247
O    core     0.581818    0.037963    0.659914
O    core     0.581518    0.182563    0.731587
O    core     0.824618    0.425563    0.064921
O    core     0.581618    0.425663    0.398254
O    core     0.410318    0.839963    0.231587
O    core     0.167218    0.596963    0.564920
O    core     0.410218    0.596863    0.898254
F    core     0.446918    0.913263    0.731587
F    core     0.093918    0.560263    0.064921
F    core     0.446918    0.560263    0.398254
F    core     0.544918    0.109263    0.231587
F    core     0.897918    0.462263    0.564920
F    core     0.544918    0.462263    0.898254
O    shel     0.919918    0.011263    0.481587
O    shel     0.995918    0.935263    0.814920
O    shel     0.071918    0.087263    0.148254
O    shel     0.071918    0.011263    0.981587
O    shel     0.995918    0.087263    0.314920
O    shel     0.919918    0.935263    0.648254
O    shel     0.332318    0.592263    0.814157
O    shel     0.414918    0.766663    0.147490
O    shel     0.240518    0.674863    0.480824
O    shel     0.659518    0.430263    0.314157
O    shel     0.576918    0.255863    0.647490
O    shel     0.751318    0.347663    0.980824
O    shel     0.576918    0.347663    0.482351
O    shel     0.751318    0.430263    0.149017
O    shel     0.659518    0.255863    0.815684
O    shel     0.414918    0.674863    0.982350
O    shel     0.240518    0.592263    0.649017
O    shel     0.332318    0.766663    0.315684
O    shel     0.127018    0.225463    0.453427
O    shel     0.781718    0.928163    0.786761
O    shel     0.079018    0.880163    0.120094
O    shel     0.864818    0.797063    0.953427
O    shel     0.210118    0.094363    0.286761
O    shel     0.912818    0.142363    0.620094
O    shel     0.210118    0.142363    0.843080
O    shel     0.912818    0.797063    0.509747
O    shel     0.864818    0.094363    0.176414
O    shel     0.781718    0.880163    0.343080
O    shel     0.079018    0.225463    0.009747
O    shel     0.127018    0.928163    0.676414
O    shel     0.924718    0.868863    0.731587
O    shel     0.138318    0.082463    0.064921
O    shel     0.924718    0.082463    0.398254
O    shel     0.067118    0.153663    0.231587
O    shel     0.853518    0.940063    0.564920
O    shel     0.067118    0.940063    0.898254
O    shel     0.894118    0.214863    0.460237
O    shel     0.792318    0.705863    0.793570
O    shel     0.301318    0.113063    0.126904
O    shel     0.097718    0.807663    0.960237
O    shel     0.199518    0.316663    0.293570
O    shel     0.690518    0.909463    0.626904
O    shel     0.199518    0.909463    0.836271
O    shel     0.690518    0.807663    0.502937
O    shel     0.097718    0.316663    0.169604
O    shel     0.792318    0.113063    0.336270
O    shel     0.301318    0.214863    0.002937
O    shel     0.894118    0.705863    0.669604
O    shel     0.314618    0.648863    0.731587
O    shel     0.358318    0.692363    0.064921
O    shel     0.314818    0.692563    0.398254
O    shel     0.677218    0.373663    0.231587
O    shel     0.633518    0.330163    0.564920
O    shel     0.677018    0.329963    0.898254
O    shel     0.366218    0.337563    0.450567
O    shel     0.669618    0.055263    0.783900
O    shel     0.951918    0.640963    0.117234
O    shel     0.625618    0.684963    0.950567
O    shel     0.322218    0.967263    0.283900
O    shel     0.039918    0.381563    0.617234
O    shel     0.322218    0.381563    0.845940
O    shel     0.039918    0.684963    0.512607
O    shel     0.625618    0.967263    0.179274
O    shel     0.669618    0.640963    0.345940
O    shel     0.951918    0.337563    0.012607
O    shel     0.366218    0.055263    0.679274
O    shel     0.765318    0.311463    0.492937
O    shel     0.695718    0.480463    0.826270
O    shel     0.526718    0.241863    0.159604
O    shel     0.226518    0.711063    0.992937
O    shel     0.296118    0.542063    0.326270
O    shel     0.465118    0.780663    0.659604
O    shel     0.296118    0.780663    0.803570
O    shel     0.465118    0.711063    0.470237
O    shel     0.226518    0.542063    0.136904
O    shel     0.695718    0.241863    0.303570
O    shel     0.526718    0.311463    0.970237
O    shel     0.765318    0.480463    0.636904
O    shel     0.783618    0.540363    0.512547
O    shel     0.466818    0.269863    0.845880
O    shel     0.737318    0.223563    0.179214
O    shel     0.208218    0.482163    0.012547
O    shel     0.525018    0.752663    0.345880
O    shel     0.254518    0.798963    0.679214
O    shel     0.525018    0.798963    0.783960
O    shel     0.254518    0.482163    0.450627
O    shel     0.208218    0.752663    0.117294
O    shel     0.466818    0.223563    0.283960
O    shel     0.737318    0.540363    0.950627
O    shel     0.783618    0.269863    0.617294
O    shel     0.229718    0.333763    0.380257
O    shel     0.673418    0.922563    0.713590
O    shel     0.084618    0.777463    0.046924
O    shel     0.762118    0.688763    0.880257
O    shel     0.318418    0.099963    0.213590
O    shel     0.907218    0.245063    0.546924
O    shel     0.318418    0.245063    0.916250
O    shel     0.907218    0.688763    0.582917
O    shel     0.762118    0.099963    0.249584
O    shel     0.673418    0.777463    0.416250
O    shel     0.084618    0.333763    0.082917
O    shel     0.229718    0.922563    0.749584
O    shel     0.581818    0.570463    0.469927
O    shel     0.436718    0.037963    0.803261
O    shel     0.969218    0.425363    0.136594
O    shel     0.410018    0.452063    0.969927
O    shel     0.555118    0.984563    0.303261
O    shel     0.022618    0.597163    0.636594
O    shel     0.555118    0.597163    0.826581
O    shel     0.022618    0.452063    0.493247
O    shel     0.410018    0.984563    0.159914
O    shel     0.436718    0.425363    0.326580
O    shel     0.969218    0.570463    0.993247
O    shel     0.581818    0.037963    0.659914
O    shel     0.581518    0.182563    0.731587
O    shel     0.824618    0.425563    0.064921
O    shel     0.581618    0.425663    0.398254
O    shel     0.410318    0.839963    0.231587
O    shel     0.167218    0.596963    0.564920
O    shel     0.410218    0.596863    0.898254
F    shel     0.446918    0.913263    0.731587
F    shel     0.093918    0.560263    0.064921
F    shel     0.446918    0.560263    0.398254
F    shel     0.544918    0.109263    0.231587
F    shel     0.897918    0.462263    0.564920
F    shel     0.544918    0.462263    0.898254

space
P 1

print 1
