single

# Created by GDIS version 0.90.0
#

switch rfo gnorm 0.001000

name c2777_8

cell
11.902100 11.902100 29.692000  90.000000 90.000000 120.000000
fractional
Si   core     0.043199    0.545532    0.831002
Si   core     0.967899    0.493732    0.164335
Si   core     0.019699    0.470232    0.497669
Si   core     0.643999    0.794132    0.331002
Si   core     0.719299    0.845932    0.664335
Si   core     0.667499    0.869432    0.997669
Si   core     0.719299    0.869432    0.096555
Si   core     0.667499    0.794132    0.763222
Si   core     0.643999    0.845932    0.429889
Si   core     0.967899    0.470232    0.596555
Si   core     0.019699    0.545532    0.263222
Si   core     0.043199    0.493732    0.929889
Ge   core     0.873899    0.583232    0.763982
Si   core     0.930199    0.286732    0.097315
Si   core     0.226699    0.639532    0.430649
Si   core     0.813299    0.756432    0.263982
Si   core     0.756999    0.052932    0.597315
Si   core     0.460499    0.700132    0.930649
Si   core     0.756999    0.700132    0.163575
Si   core     0.460499    0.756432    0.830242
Si   core     0.813299    0.052932    0.496909
Si   core     0.930199    0.639532    0.663575
Si   core     0.226699    0.583232    0.330242
Si   core     0.873899    0.286732    0.996909
Si   core     0.642399    0.564132    0.648302
Si   core     0.949299    0.074332    0.981635
Si   core     0.439099    0.871032    0.314969
Si   core     0.044799    0.775532    0.148302
Si   core     0.737899    0.265332    0.481635
Si   core     0.248099    0.468632    0.814969
Si   core     0.737899    0.468632    0.279255
Si   core     0.248099    0.775532    0.945922
Si   core     0.044799    0.265332    0.612589
Si   core     0.949299    0.871032    0.779255
Si   core     0.439099    0.564132    0.445922
Si   core     0.642399    0.074332    0.112589
Ge   core     0.592099    0.504732    0.749212
Si   core     0.008699    0.083432    0.082545
Si   core     0.429999    0.921332    0.415879
Si   core     0.095099    0.834932    0.249212
Si   core     0.678499    0.256232    0.582545
Si   core     0.257199    0.418332    0.915879
Si   core     0.678499    0.418332    0.178345
Si   core     0.257199    0.834932    0.845012
Si   core     0.095099    0.256232    0.511679
Si   core     0.008699    0.921332    0.678345
Si   core     0.429999    0.504732    0.345012
Si   core     0.592099    0.083432    0.011679
Ge   core     0.313799    0.292732    0.764082
Si   core     0.220699    0.017132    0.097415
Si   core     0.496299    0.199632    0.430749
Si   core     0.373399    0.046932    0.264082
Si   core     0.466499    0.322532    0.597415
Si   core     0.190899    0.140032    0.930749
Si   core     0.466499    0.140032    0.163475
Ge   core     0.190899    0.046932    0.830142
Si   core     0.373399    0.322532    0.496809
Si   core     0.220699    0.199632    0.663475
Si   core     0.496299    0.292732    0.330142
Si   core     0.313799    0.017132    0.996809
O    core     0.267599    0.169832    0.797112
O    core     0.343599    0.093832    0.130445
O    core     0.419599    0.245832    0.463779
O    core     0.419599    0.169832    0.297112
O    core     0.343599    0.245832    0.630445
O    core     0.267599    0.093832    0.963779
O    core     0.679999    0.750832    0.129682
O    core     0.762599    0.925232    0.463015
O    core     0.588199    0.833432    0.796349
O    core     0.007199    0.588832    0.629682
O    core     0.924599    0.414432    0.963015
O    core     0.098999    0.506232    0.296349
O    core     0.924599    0.506232    0.797875
O    core     0.098999    0.588832    0.464542
O    core     0.007199    0.414432    0.131209
O    core     0.762599    0.833432    0.297875
O    core     0.588199    0.750832    0.964542
O    core     0.679999    0.925232    0.631209
O    core     0.474699    0.384032    0.768952
O    core     0.129399    0.086732    0.102285
O    core     0.426699    0.038732    0.435619
O    core     0.212499    0.955632    0.268952
O    core     0.557799    0.252932    0.602285
O    core     0.260499    0.300932    0.935619
O    core     0.557799    0.300932    0.158605
O    core     0.260499    0.955632    0.825272
O    core     0.212499    0.252932    0.491939
O    core     0.129399    0.038732    0.658605
O    core     0.426699    0.384032    0.325272
O    core     0.474699    0.086732    0.991939
O    core     0.272399    0.027432    0.047112
O    core     0.485999    0.241032    0.380445
O    core     0.272399    0.241032    0.713779
O    core     0.414799    0.312232    0.547112
O    core     0.201199    0.098632    0.880445
O    core     0.414799    0.098632    0.213779
O    core     0.241799    0.373432    0.775762
O    core     0.139999    0.864432    0.109095
O    core     0.648999    0.271632    0.442429
O    core     0.445399    0.966232    0.275762
O    core     0.547199    0.475232    0.609095
O    core     0.038199    0.068032    0.942429
O    core     0.547199    0.068032    0.151795
O    core     0.038199    0.966232    0.818462
O    core     0.445399    0.475232    0.485129
O    core     0.139999    0.271632    0.651795
O    core     0.648999    0.373432    0.318462
O    core     0.241799    0.864432    0.985129
O    core     0.662299    0.807432    0.047112
O    core     0.705999    0.850932    0.380445
O    core     0.662499    0.851132    0.713779
O    core     0.024899    0.532232    0.547112
O    core     0.981199    0.488732    0.880445
O    core     0.024699    0.488532    0.213779
O    core     0.713899    0.496132    0.766092
O    core     0.017299    0.213832    0.099425
O    core     0.299599    0.799532    0.432759
O    core     0.973299    0.843532    0.266092
O    core     0.669899    0.125832    0.599425
O    core     0.387599    0.540132    0.932759
O    core     0.669899    0.540132    0.161465
O    core     0.387599    0.843532    0.828132
O    core     0.973299    0.125832    0.494799
O    core     0.017299    0.799532    0.661465
O    core     0.299599    0.496132    0.328132
O    core     0.713899    0.213832    0.994799
O    core     0.112999    0.470032    0.808462
O    core     0.043399    0.639032    0.141795
O    core     0.874399    0.400432    0.475129
O    core     0.574199    0.869632    0.308462
O    core     0.643799    0.700632    0.641795
O    core     0.812799    0.939232    0.975129
O    core     0.643799    0.939232    0.119095
O    core     0.812799    0.869632    0.785762
O    core     0.574199    0.700632    0.452429
O    core     0.043399    0.400432    0.619095
O    core     0.874399    0.470032    0.285762
O    core     0.112999    0.639032    0.952429
O    core     0.131299    0.698932    0.828072
O    core     0.814499    0.428432    0.161405
O    core     0.084999    0.382132    0.494739
O    core     0.555899    0.640732    0.328072
O    core     0.872699    0.911232    0.661405
O    core     0.602199    0.957532    0.994739
O    core     0.872699    0.957532    0.099485
O    core     0.602199    0.640732    0.766152
O    core     0.555899    0.911232    0.432819
O    core     0.814499    0.382132    0.599485
O    core     0.084999    0.698932    0.266152
O    core     0.131299    0.428432    0.932819
O    core     0.577399    0.492332    0.695782
O    core     0.021099    0.081132    0.029115
O    core     0.432299    0.936032    0.362449
O    core     0.109799    0.847332    0.195782
O    core     0.666099    0.258532    0.529115
O    core     0.254899    0.403632    0.862449
O    core     0.666099    0.403632    0.231775
O    core     0.254899    0.847332    0.898442
O    core     0.109799    0.258532    0.565109
O    core     0.021099    0.936032    0.731775
O    core     0.432299    0.492332    0.398442
O    core     0.577399    0.081132    0.065109
O    core     0.929499    0.729032    0.785452
O    core     0.784399    0.196532    0.118785
O    core     0.316899    0.583932    0.452119
O    core     0.757699    0.610632    0.285452
O    core     0.902799    0.143132    0.618785
O    core     0.370299    0.755732    0.952119
O    core     0.902799    0.755732    0.142105
O    core     0.370299    0.610632    0.808772
O    core     0.757699    0.143132    0.475439
O    core     0.784399    0.583932    0.642105
O    core     0.316899    0.729032    0.308772
O    core     0.929499    0.196532    0.975439
O    core     0.929199    0.341132    0.047112
O    core     0.172299    0.584132    0.380445
O    core     0.929299    0.584232    0.713779
O    core     0.757999    0.998532    0.547112
O    core     0.514899    0.755532    0.880445
O    core     0.757899    0.755432    0.213779
F    core     0.794599    0.071832    0.047112
F    core     0.441599    0.718832    0.380445
F    core     0.794599    0.718832    0.713779
F    core     0.892599    0.267832    0.547112
F    core     0.245599    0.620832    0.880445
F    core     0.892599    0.620832    0.213779
O    shel     0.267599    0.169832    0.797112
O    shel     0.343599    0.093832    0.130445
O    shel     0.419599    0.245832    0.463779
O    shel     0.419599    0.169832    0.297112
O    shel     0.343599    0.245832    0.630445
O    shel     0.267599    0.093832    0.963779
O    shel     0.679999    0.750832    0.129682
O    shel     0.762599    0.925232    0.463015
O    shel     0.588199    0.833432    0.796349
O    shel     0.007199    0.588832    0.629682
O    shel     0.924599    0.414432    0.963015
O    shel     0.098999    0.506232    0.296349
O    shel     0.924599    0.506232    0.797875
O    shel     0.098999    0.588832    0.464542
O    shel     0.007199    0.414432    0.131209
O    shel     0.762599    0.833432    0.297875
O    shel     0.588199    0.750832    0.964542
O    shel     0.679999    0.925232    0.631209
O    shel     0.474699    0.384032    0.768952
O    shel     0.129399    0.086732    0.102285
O    shel     0.426699    0.038732    0.435619
O    shel     0.212499    0.955632    0.268952
O    shel     0.557799    0.252932    0.602285
O    shel     0.260499    0.300932    0.935619
O    shel     0.557799    0.300932    0.158605
O    shel     0.260499    0.955632    0.825272
O    shel     0.212499    0.252932    0.491939
O    shel     0.129399    0.038732    0.658605
O    shel     0.426699    0.384032    0.325272
O    shel     0.474699    0.086732    0.991939
O    shel     0.272399    0.027432    0.047112
O    shel     0.485999    0.241032    0.380445
O    shel     0.272399    0.241032    0.713779
O    shel     0.414799    0.312232    0.547112
O    shel     0.201199    0.098632    0.880445
O    shel     0.414799    0.098632    0.213779
O    shel     0.241799    0.373432    0.775762
O    shel     0.139999    0.864432    0.109095
O    shel     0.648999    0.271632    0.442429
O    shel     0.445399    0.966232    0.275762
O    shel     0.547199    0.475232    0.609095
O    shel     0.038199    0.068032    0.942429
O    shel     0.547199    0.068032    0.151795
O    shel     0.038199    0.966232    0.818462
O    shel     0.445399    0.475232    0.485129
O    shel     0.139999    0.271632    0.651795
O    shel     0.648999    0.373432    0.318462
O    shel     0.241799    0.864432    0.985129
O    shel     0.662299    0.807432    0.047112
O    shel     0.705999    0.850932    0.380445
O    shel     0.662499    0.851132    0.713779
O    shel     0.024899    0.532232    0.547112
O    shel     0.981199    0.488732    0.880445
O    shel     0.024699    0.488532    0.213779
O    shel     0.713899    0.496132    0.766092
O    shel     0.017299    0.213832    0.099425
O    shel     0.299599    0.799532    0.432759
O    shel     0.973299    0.843532    0.266092
O    shel     0.669899    0.125832    0.599425
O    shel     0.387599    0.540132    0.932759
O    shel     0.669899    0.540132    0.161465
O    shel     0.387599    0.843532    0.828132
O    shel     0.973299    0.125832    0.494799
O    shel     0.017299    0.799532    0.661465
O    shel     0.299599    0.496132    0.328132
O    shel     0.713899    0.213832    0.994799
O    shel     0.112999    0.470032    0.808462
O    shel     0.043399    0.639032    0.141795
O    shel     0.874399    0.400432    0.475129
O    shel     0.574199    0.869632    0.308462
O    shel     0.643799    0.700632    0.641795
O    shel     0.812799    0.939232    0.975129
O    shel     0.643799    0.939232    0.119095
O    shel     0.812799    0.869632    0.785762
O    shel     0.574199    0.700632    0.452429
O    shel     0.043399    0.400432    0.619095
O    shel     0.874399    0.470032    0.285762
O    shel     0.112999    0.639032    0.952429
O    shel     0.131299    0.698932    0.828072
O    shel     0.814499    0.428432    0.161405
O    shel     0.084999    0.382132    0.494739
O    shel     0.555899    0.640732    0.328072
O    shel     0.872699    0.911232    0.661405
O    shel     0.602199    0.957532    0.994739
O    shel     0.872699    0.957532    0.099485
O    shel     0.602199    0.640732    0.766152
O    shel     0.555899    0.911232    0.432819
O    shel     0.814499    0.382132    0.599485
O    shel     0.084999    0.698932    0.266152
O    shel     0.131299    0.428432    0.932819
O    shel     0.577399    0.492332    0.695782
O    shel     0.021099    0.081132    0.029115
O    shel     0.432299    0.936032    0.362449
O    shel     0.109799    0.847332    0.195782
O    shel     0.666099    0.258532    0.529115
O    shel     0.254899    0.403632    0.862449
O    shel     0.666099    0.403632    0.231775
O    shel     0.254899    0.847332    0.898442
O    shel     0.109799    0.258532    0.565109
O    shel     0.021099    0.936032    0.731775
O    shel     0.432299    0.492332    0.398442
O    shel     0.577399    0.081132    0.065109
O    shel     0.929499    0.729032    0.785452
O    shel     0.784399    0.196532    0.118785
O    shel     0.316899    0.583932    0.452119
O    shel     0.757699    0.610632    0.285452
O    shel     0.902799    0.143132    0.618785
O    shel     0.370299    0.755732    0.952119
O    shel     0.902799    0.755732    0.142105
O    shel     0.370299    0.610632    0.808772
O    shel     0.757699    0.143132    0.475439
O    shel     0.784399    0.583932    0.642105
O    shel     0.316899    0.729032    0.308772
O    shel     0.929499    0.196532    0.975439
O    shel     0.929199    0.341132    0.047112
O    shel     0.172299    0.584132    0.380445
O    shel     0.929299    0.584232    0.713779
O    shel     0.757999    0.998532    0.547112
O    shel     0.514899    0.755532    0.880445
O    shel     0.757899    0.755432    0.213779
F    shel     0.794599    0.071832    0.047112
F    shel     0.441599    0.718832    0.380445
F    shel     0.794599    0.718832    0.713779
F    shel     0.892599    0.267832    0.547112
F    shel     0.245599    0.620832    0.880445
F    shel     0.892599    0.620832    0.213779

space
P 1

print 1
