single

# Created by GDIS version 0.90.0
#

switch rfo gnorm 0.001000

name c2777_7

cell
11.902100 11.902100 29.692000  90.000000 90.000000 120.000000
fractional
Si   core     0.345835    0.712441    0.835846
Si   core     0.270535    0.660641    0.169180
Si   core     0.322335    0.637141    0.502513
Si   core     0.946635    0.961041    0.335846
Si   core     0.021935    0.012841    0.669180
Si   core     0.970135    0.036341    0.002513
Si   core     0.021935    0.036341    0.101400
Ge   core     0.970135    0.961041    0.768066
Si   core     0.946635    0.012841    0.434733
Si   core     0.270535    0.637141    0.601400
Si   core     0.322335    0.712441    0.268066
Si   core     0.345835    0.660641    0.934733
Si   core     0.176535    0.750141    0.768826
Si   core     0.232835    0.453641    0.102160
Si   core     0.529335    0.806441    0.435493
Si   core     0.115935    0.923341    0.268827
Si   core     0.059635    0.219841    0.602160
Si   core     0.763135    0.867041    0.935493
Si   core     0.059635    0.867041    0.168420
Si   core     0.763135    0.923341    0.835086
Si   core     0.115935    0.219841    0.501753
Si   core     0.232835    0.806441    0.668420
Si   core     0.529335    0.750141    0.335086
Si   core     0.176535    0.453641    0.001753
Si   core     0.945035    0.731041    0.653146
Si   core     0.251935    0.241241    0.986480
Si   core     0.741735    0.037941    0.319813
Si   core     0.347435    0.942441    0.153146
Si   core     0.040535    0.432241    0.486480
Si   core     0.550735    0.635541    0.819813
Si   core     0.040535    0.635541    0.284100
Si   core     0.550735    0.942441    0.950766
Si   core     0.347435    0.432241    0.617433
Si   core     0.251935    0.037941    0.784100
Si   core     0.741735    0.731041    0.450766
Si   core     0.945035    0.241241    0.117433
Ge   core     0.894735    0.671641    0.754056
Si   core     0.311335    0.250341    0.087390
Si   core     0.732635    0.088241    0.420723
Si   core     0.397735    0.001841    0.254056
Si   core     0.981135    0.423141    0.587390
Si   core     0.559835    0.585241    0.920723
Si   core     0.981135    0.585241    0.183190
Si   core     0.559835    0.001841    0.849856
Si   core     0.397735    0.423141    0.516523
Si   core     0.311335    0.088241    0.683190
Si   core     0.732635    0.671641    0.349856
Si   core     0.894735    0.250341    0.016523
Ge   core     0.616435    0.459641    0.768926
Si   core     0.523335    0.184041    0.102260
Si   core     0.798935    0.366541    0.435593
Si   core     0.676035    0.213841    0.268926
Si   core     0.769135    0.489441    0.602260
Si   core     0.493535    0.306941    0.935593
Si   core     0.769135    0.306941    0.168320
Ge   core     0.493535    0.213841    0.834986
Si   core     0.676035    0.489441    0.501653
Si   core     0.523335    0.366541    0.668320
Si   core     0.798935    0.459641    0.334986
Si   core     0.616435    0.184041    0.001653
O    core     0.570235    0.336741    0.801956
O    core     0.646235    0.260741    0.135290
O    core     0.722235    0.412741    0.468623
O    core     0.722235    0.336741    0.301956
O    core     0.646235    0.412741    0.635290
O    core     0.570235    0.260741    0.968623
O    core     0.982635    0.917741    0.134526
O    core     0.065235    0.092141    0.467860
O    core     0.890835    0.000341    0.801193
O    core     0.309835    0.755741    0.634526
O    core     0.227235    0.581341    0.967860
O    core     0.401635    0.673141    0.301193
O    core     0.227235    0.673141    0.802720
O    core     0.401635    0.755741    0.469386
O    core     0.309835    0.581341    0.136053
O    core     0.065235    0.000341    0.302720
O    core     0.890835    0.917741    0.969386
O    core     0.982635    0.092141    0.636053
O    core     0.777335    0.550941    0.773796
O    core     0.432035    0.253641    0.107130
O    core     0.729335    0.205641    0.440463
O    core     0.515135    0.122541    0.273796
O    core     0.860435    0.419841    0.607130
O    core     0.563135    0.467841    0.940463
O    core     0.860435    0.467841    0.163450
O    core     0.563135    0.122541    0.830116
O    core     0.515135    0.419841    0.496783
O    core     0.432035    0.205641    0.663450
O    core     0.729335    0.550941    0.330116
O    core     0.777335    0.253641    0.996783
O    core     0.575035    0.194341    0.051956
O    core     0.788635    0.407941    0.385290
O    core     0.575035    0.407941    0.718623
O    core     0.717435    0.479141    0.551956
O    core     0.503835    0.265541    0.885290
O    core     0.717435    0.265541    0.218623
O    core     0.544435    0.540341    0.780606
O    core     0.442635    0.031341    0.113940
O    core     0.951635    0.438541    0.447273
O    core     0.748035    0.133141    0.280606
O    core     0.849835    0.642141    0.613940
O    core     0.340835    0.234941    0.947273
O    core     0.849835    0.234941    0.156640
O    core     0.340835    0.133141    0.823306
O    core     0.748035    0.642141    0.489973
O    core     0.442635    0.438541    0.656640
O    core     0.951635    0.540341    0.323306
O    core     0.544435    0.031341    0.989973
O    core     0.964935    0.974341    0.051956
O    core     0.008635    0.017841    0.385290
O    core     0.965135    0.018041    0.718623
O    core     0.327535    0.699141    0.551956
O    core     0.283835    0.655641    0.885290
O    core     0.327335    0.655441    0.218623
O    core     0.016535    0.663041    0.770936
O    core     0.319935    0.380741    0.104270
O    core     0.602235    0.966441    0.437603
O    core     0.275935    0.010441    0.270937
O    core     0.972535    0.292741    0.604270
O    core     0.690235    0.707041    0.937603
O    core     0.972535    0.707041    0.166310
O    core     0.690235    0.010441    0.832976
O    core     0.275935    0.292741    0.499643
O    core     0.319935    0.966441    0.666310
O    core     0.602235    0.663041    0.332976
O    core     0.016535    0.380741    0.999643
O    core     0.415635    0.636941    0.813306
O    core     0.346035    0.805941    0.146640
O    core     0.177035    0.567341    0.479973
O    core     0.876835    0.036541    0.313306
O    core     0.946435    0.867541    0.646640
O    core     0.115435    0.106141    0.979973
O    core     0.946435    0.106141    0.123940
O    core     0.115435    0.036541    0.790606
O    core     0.876835    0.867541    0.457273
O    core     0.346035    0.567341    0.623940
O    core     0.177035    0.636941    0.290606
O    core     0.415635    0.805941    0.957273
O    core     0.433935    0.865841    0.832916
O    core     0.117135    0.595341    0.166250
O    core     0.387635    0.549041    0.499583
O    core     0.858535    0.807641    0.332916
O    core     0.175335    0.078141    0.666250
O    core     0.904835    0.124441    0.999583
O    core     0.175335    0.124441    0.104330
O    core     0.904835    0.807641    0.770996
O    core     0.858535    0.078141    0.437663
O    core     0.117135    0.549041    0.604330
O    core     0.387635    0.865841    0.270996
O    core     0.433935    0.595341    0.937663
O    core     0.880035    0.659241    0.700626
O    core     0.323735    0.248041    0.033960
O    core     0.734935    0.102941    0.367293
O    core     0.412435    0.014241    0.200626
O    core     0.968735    0.425441    0.533960
O    core     0.557535    0.570541    0.867293
O    core     0.968735    0.570541    0.236620
O    core     0.557535    0.014241    0.903286
O    core     0.412435    0.425441    0.569953
O    core     0.323735    0.102941    0.736620
O    core     0.734935    0.659241    0.403286
O    core     0.880035    0.248041    0.069953
O    core     0.232135    0.895941    0.790296
O    core     0.087035    0.363441    0.123630
O    core     0.619535    0.750841    0.456963
O    core     0.060335    0.777541    0.290296
O    core     0.205435    0.310041    0.623630
O    core     0.672935    0.922641    0.956963
O    core     0.205435    0.922641    0.146950
O    core     0.672935    0.777541    0.813616
O    core     0.060335    0.310041    0.480283
O    core     0.087035    0.750841    0.646950
O    core     0.619535    0.895941    0.313616
O    core     0.232135    0.363441    0.980283
O    core     0.231835    0.508041    0.051956
O    core     0.474935    0.751041    0.385290
O    core     0.231935    0.751141    0.718623
O    core     0.060635    0.165441    0.551956
O    core     0.817535    0.922441    0.885290
O    core     0.060535    0.922341    0.218623
F    core     0.097235    0.238741    0.051956
F    core     0.744235    0.885741    0.385290
F    core     0.097235    0.885741    0.718623
F    core     0.195235    0.434741    0.551956
F    core     0.548235    0.787741    0.885290
F    core     0.195235    0.787741    0.218623
O    shel     0.570235    0.336741    0.801956
O    shel     0.646235    0.260741    0.135290
O    shel     0.722235    0.412741    0.468623
O    shel     0.722235    0.336741    0.301956
O    shel     0.646235    0.412741    0.635290
O    shel     0.570235    0.260741    0.968623
O    shel     0.982635    0.917741    0.134526
O    shel     0.065235    0.092141    0.467860
O    shel     0.890835    0.000341    0.801193
O    shel     0.309835    0.755741    0.634526
O    shel     0.227235    0.581341    0.967860
O    shel     0.401635    0.673141    0.301193
O    shel     0.227235    0.673141    0.802720
O    shel     0.401635    0.755741    0.469386
O    shel     0.309835    0.581341    0.136053
O    shel     0.065235    0.000341    0.302720
O    shel     0.890835    0.917741    0.969386
O    shel     0.982635    0.092141    0.636053
O    shel     0.777335    0.550941    0.773796
O    shel     0.432035    0.253641    0.107130
O    shel     0.729335    0.205641    0.440463
O    shel     0.515135    0.122541    0.273796
O    shel     0.860435    0.419841    0.607130
O    shel     0.563135    0.467841    0.940463
O    shel     0.860435    0.467841    0.163450
O    shel     0.563135    0.122541    0.830116
O    shel     0.515135    0.419841    0.496783
O    shel     0.432035    0.205641    0.663450
O    shel     0.729335    0.550941    0.330116
O    shel     0.777335    0.253641    0.996783
O    shel     0.575035    0.194341    0.051956
O    shel     0.788635    0.407941    0.385290
O    shel     0.575035    0.407941    0.718623
O    shel     0.717435    0.479141    0.551956
O    shel     0.503835    0.265541    0.885290
O    shel     0.717435    0.265541    0.218623
O    shel     0.544435    0.540341    0.780606
O    shel     0.442635    0.031341    0.113940
O    shel     0.951635    0.438541    0.447273
O    shel     0.748035    0.133141    0.280606
O    shel     0.849835    0.642141    0.613940
O    shel     0.340835    0.234941    0.947273
O    shel     0.849835    0.234941    0.156640
O    shel     0.340835    0.133141    0.823306
O    shel     0.748035    0.642141    0.489973
O    shel     0.442635    0.438541    0.656640
O    shel     0.951635    0.540341    0.323306
O    shel     0.544435    0.031341    0.989973
O    shel     0.964935    0.974341    0.051956
O    shel     0.008635    0.017841    0.385290
O    shel     0.965135    0.018041    0.718623
O    shel     0.327535    0.699141    0.551956
O    shel     0.283835    0.655641    0.885290
O    shel     0.327335    0.655441    0.218623
O    shel     0.016535    0.663041    0.770936
O    shel     0.319935    0.380741    0.104270
O    shel     0.602235    0.966441    0.437603
O    shel     0.275935    0.010441    0.270937
O    shel     0.972535    0.292741    0.604270
O    shel     0.690235    0.707041    0.937603
O    shel     0.972535    0.707041    0.166310
O    shel     0.690235    0.010441    0.832976
O    shel     0.275935    0.292741    0.499643
O    shel     0.319935    0.966441    0.666310
O    shel     0.602235    0.663041    0.332976
O    shel     0.016535    0.380741    0.999643
O    shel     0.415635    0.636941    0.813306
O    shel     0.346035    0.805941    0.146640
O    shel     0.177035    0.567341    0.479973
O    shel     0.876835    0.036541    0.313306
O    shel     0.946435    0.867541    0.646640
O    shel     0.115435    0.106141    0.979973
O    shel     0.946435    0.106141    0.123940
O    shel     0.115435    0.036541    0.790606
O    shel     0.876835    0.867541    0.457273
O    shel     0.346035    0.567341    0.623940
O    shel     0.177035    0.636941    0.290606
O    shel     0.415635    0.805941    0.957273
O    shel     0.433935    0.865841    0.832916
O    shel     0.117135    0.595341    0.166250
O    shel     0.387635    0.549041    0.499583
O    shel     0.858535    0.807641    0.332916
O    shel     0.175335    0.078141    0.666250
O    shel     0.904835    0.124441    0.999583
O    shel     0.175335    0.124441    0.104330
O    shel     0.904835    0.807641    0.770996
O    shel     0.858535    0.078141    0.437663
O    shel     0.117135    0.549041    0.604330
O    shel     0.387635    0.865841    0.270996
O    shel     0.433935    0.595341    0.937663
O    shel     0.880035    0.659241    0.700626
O    shel     0.323735    0.248041    0.033960
O    shel     0.734935    0.102941    0.367293
O    shel     0.412435    0.014241    0.200626
O    shel     0.968735    0.425441    0.533960
O    shel     0.557535    0.570541    0.867293
O    shel     0.968735    0.570541    0.236620
O    shel     0.557535    0.014241    0.903286
O    shel     0.412435    0.425441    0.569953
O    shel     0.323735    0.102941    0.736620
O    shel     0.734935    0.659241    0.403286
O    shel     0.880035    0.248041    0.069953
O    shel     0.232135    0.895941    0.790296
O    shel     0.087035    0.363441    0.123630
O    shel     0.619535    0.750841    0.456963
O    shel     0.060335    0.777541    0.290296
O    shel     0.205435    0.310041    0.623630
O    shel     0.672935    0.922641    0.956963
O    shel     0.205435    0.922641    0.146950
O    shel     0.672935    0.777541    0.813616
O    shel     0.060335    0.310041    0.480283
O    shel     0.087035    0.750841    0.646950
O    shel     0.619535    0.895941    0.313616
O    shel     0.232135    0.363441    0.980283
O    shel     0.231835    0.508041    0.051956
O    shel     0.474935    0.751041    0.385290
O    shel     0.231935    0.751141    0.718623
O    shel     0.060635    0.165441    0.551956
O    shel     0.817535    0.922441    0.885290
O    shel     0.060535    0.922341    0.218623
F    shel     0.097235    0.238741    0.051956
F    shel     0.744235    0.885741    0.385290
F    shel     0.097235    0.885741    0.718623
F    shel     0.195235    0.434741    0.551956
F    shel     0.548235    0.787741    0.885290
F    shel     0.195235    0.787741    0.218623

space
P 1

print 1
