opti conp rfo qok 

# Created by GDIS version 0.90.0
#



dump every      1 c0271_10.res

cell
11.959377 11.985428 29.578527  90.157673 90.083195 120.154150
fractional
Ge   core     0.312270    0.375700    0.444780    4.0000000  1.0000000
Si   core     0.234892    0.323780    0.779064    4.0000000  1.0000000
Si   core     0.291111    0.296462    0.109874    4.0000000  1.0000000
Si   core     0.910741    0.622565    0.943710    4.0000000  1.0000000
Si   core     0.986959    0.676579    0.276350    4.0000000  1.0000000
Si   core     0.937744    0.704804    0.612115    4.0000000  1.0000000
Si   core     0.990644    0.699524    0.712134    4.0000000  1.0000000
Si   core     0.940336    0.626881    0.376873    4.0000000  1.0000000
Si   core     0.911713    0.677619    0.044079    4.0000000  1.0000000
Si   core     0.235061    0.299365    0.209540    4.0000000  1.0000000
Si   core     0.288710    0.379665    0.879125    4.0000000  1.0000000
Ge   core     0.315280    0.317954    0.544502    4.0000000  1.0000000
Si   core     0.142490    0.417181    0.376284    4.0000000  1.0000000
Si   core     0.196363    0.111104    0.715741    4.0000000  1.0000000
Si   core     0.499413    0.469448    0.044533    4.0000000  1.0000000
Si   core     0.081347    0.583449    0.878436    4.0000000  1.0000000
Si   core     0.028166    0.885915    0.211117    4.0000000  1.0000000
Si   core     0.731578    0.531541    0.544765    4.0000000  1.0000000
Si   core     0.029821    0.528922    0.777087    4.0000000  1.0000000
Si   core     0.733221    0.590061    0.442399    4.0000000  1.0000000
Si   core     0.083138    0.885804    0.110125    4.0000000  1.0000000
Si   core     0.190895    0.466023    0.274841    4.0000000  1.0000000
Si   core     0.499626    0.417456    0.943432    4.0000000  1.0000000
Si   core     0.144346    0.115628    0.614592    4.0000000  1.0000000
Si   core     0.909627    0.398076    0.262255    4.0000000  1.0000000
Si   core     0.217288    0.908199    0.598347    4.0000000  1.0000000
Si   core     0.708518    0.698550    0.929111    4.0000000  1.0000000
Si   core     0.311581    0.601241    0.763581    4.0000000  1.0000000
Si   core     0.011627    0.094215    0.094542    4.0000000  1.0000000
Ge   core     0.515694    0.299382    0.427766    4.0000000  1.0000000
Si   core     0.009827    0.302567    0.892921    4.0000000  1.0000000
Si   core     0.516558    0.603035    0.559967    4.0000000  1.0000000
Si   core     0.309386    0.097485    0.226586    4.0000000  1.0000000
Si   core     0.219567    0.701153    0.389818    4.0000000  1.0000000
Si   core     0.709157    0.398689    0.058177    4.0000000  1.0000000
Si   core     0.914218    0.900434    0.728670    4.0000000  1.0000000
Si   core     0.863217    0.344612    0.362542    4.0000000  1.0000000
Si   core     0.273166    0.910165    0.698689    4.0000000  1.0000000
Si   core     0.701427    0.748577    0.029415    4.0000000  1.0000000
Si   core     0.360753    0.660297    0.863823    4.0000000  1.0000000
Si   core     0.954330    0.088877    0.194573    4.0000000  1.0000000
Ge   core     0.529539    0.245362    0.529807    4.0000000  1.0000000
Si   core     0.952907    0.250404    0.792667    4.0000000  1.0000000
Si   core     0.524715    0.663669    0.458149    4.0000000  1.0000000
Si   core     0.362651    0.087614    0.126643    4.0000000  1.0000000
Si   core     0.267503    0.744761    0.289074    4.0000000  1.0000000
Si   core     0.701361    0.340543    0.958032    4.0000000  1.0000000
Si   core     0.864934    0.911588    0.628672    4.0000000  1.0000000
Si   core     0.587767    0.118940    0.377875    4.0000000  1.0000000
Si   core     0.491254    0.848138    0.712732    4.0000000  1.0000000
Si   core     0.763465    0.028387    0.043930    4.0000000  1.0000000
Si   core     0.640872    0.878499    0.878599    4.0000000  1.0000000
Si   core     0.737686    0.151924    0.209112    4.0000000  1.0000000
Si   core     0.463253    0.968488    0.546300    4.0000000  1.0000000
Si   core     0.734567    0.969677    0.778080    4.0000000  1.0000000
Si   core     0.465024    0.881131    0.444447    4.0000000  1.0000000
Si   core     0.643300    0.151537    0.108743    4.0000000  1.0000000
Si   core     0.491443    0.026033    0.275821    4.0000000  1.0000000
Si   core     0.762598    0.122102    0.943531    4.0000000  1.0000000
Si   core     0.586376    0.850171    0.612165    4.0000000  1.0000000
O2   core     0.548994    0.006966    0.414798    0.8707330  1.0000000
O2   core     0.614636    0.928581    0.744611    0.8707330  1.0000000
O2   core     0.682603    0.070842    0.075563    0.8707330  1.0000000
O2   core     0.682668    0.000644    0.910814    0.8707330  1.0000000
O3   core     0.615100    0.065184    0.238854    1.3304310  1.0000000
O2   core     0.541388    0.923164    0.578018    0.8707330  1.0000000
O2   core     0.952527    0.575727    0.744139    0.8707330  1.0000000
O2   core     0.034545    0.760921    0.077225    0.8707330  1.0000000
O2   core     0.860577    0.669083    0.411022    0.8707330  1.0000000
O2   core     0.270438    0.421774    0.242079    0.8707330  1.0000000
O3   core     0.192240    0.239053    0.584148    1.3304310  1.0000000
O2   core     0.372746    0.340368    0.911507    0.8707330  1.0000000
O3   core     0.182895    0.338923    0.408278    1.3304310  1.0000000
O2   core     0.374184    0.418845    0.076985    0.8707330  1.0000000
O2   core     0.273995    0.236999    0.747922    0.8707330  1.0000000
O2   core     0.033327    0.660753    0.910759    0.8707330  1.0000000
O2   core     0.855250    0.583159    0.577970    0.8707330  1.0000000
O2   core     0.948899    0.761125    0.243532    0.8707330  1.0000000
O2   core     0.740921    0.220304    0.384920    0.8707330  1.0000000
O2   core     0.399877    0.910615    0.718640    0.8707330  1.0000000
O2   core     0.700131    0.874174    0.049467    0.8707330  1.0000000
O2   core     0.486436    0.787339    0.884114    0.8707330  1.0000000
O2   core     0.830494    0.091285    0.214924    0.8707330  1.0000000
O2   core     0.537277    0.123591    0.550728    0.8707330  1.0000000
O2   core     0.826625    0.123714    0.772421    0.8707330  1.0000000
O2   core     0.534796    0.796319    0.440321    0.8707330  1.0000000
O2   core     0.487932    0.086214    0.106258    0.8707330  1.0000000
O3   core     0.390282    0.863763    0.266520    1.3304310  1.0000000
O2   core     0.699781    0.213305    0.938171    0.8707330  1.0000000
O2   core     0.741271    0.916814    0.608502    0.8707330  1.0000000
O2   core     0.541004    0.860942    0.661880    0.8707330  1.0000000
O2   core     0.750468    0.068071    0.993554    0.8707330  1.0000000
O3   core     0.557389    0.054837    0.328928    1.3304310  1.0000000
O2   core     0.691748    0.143592    0.157962    0.8707330  1.0000000
O2   core     0.463811    0.922348    0.495762    0.8707330  1.0000000
O2   core     0.679463    0.930932    0.828155    0.8707330  1.0000000
O3   core     0.514287    0.196390    0.385460    1.3304310  1.0000000
O2   core     0.409855    0.696685    0.725061    0.8707330  1.0000000
O2   core     0.915583    0.096876    0.056083    0.8707330  1.0000000
O2   core     0.710503    0.796715    0.890807    0.8707330  1.0000000
O2   core     0.811951    0.302299    0.223648    0.8707330  1.0000000
O2   core     0.312986    0.906427    0.559895    0.8707330  1.0000000
O2   core     0.816004    0.898695    0.767003    0.8707330  1.0000000
O2   core     0.316108    0.798579    0.428417    0.8707330  1.0000000
O2   core     0.710825    0.302454    0.096217    0.8707330  1.0000000
O3   core     0.405148    0.103557    0.266142    1.3304310  1.0000000
O2   core     0.914312    0.205009    0.931381    0.8707330  1.0000000
O2   core     0.523579    0.699865    0.599494    0.8707330  1.0000000
O2   core     0.934295    0.643135    0.661610    0.8707330  1.0000000
O2   core     0.969250    0.679583    0.993834    0.8707330  1.0000000
O2   core     0.934063    0.681289    0.326906    0.8707330  1.0000000
O2   core     0.292077    0.356410    0.159550    0.8707330  1.0000000
O1   core     0.233888    0.306160    0.495203    1.7339570  1.0000000
O2   core     0.290933    0.323370    0.829175    0.8707330  1.0000000
O2   core     0.985540    0.334439    0.379222    0.8707330  1.0000000
O2   core     0.282842    0.041265    0.718159    0.8707330  1.0000000
O2   core     0.568602    0.625869    0.047568    0.8707330  1.0000000
O2   core     0.238062    0.670835    0.881377    0.8707330  1.0000000
O2   core     0.942004    0.955962    0.213152    0.8707330  1.0000000
O2   core     0.661777    0.375748    0.545019    0.8707330  1.0000000
O2   core     0.942753    0.372401    0.774235    0.8707330  1.0000000
O2   core     0.658045    0.670941    0.441879    0.8707330  1.0000000
O2   core     0.239898    0.954891    0.108014    0.8707330  1.0000000
O2   core     0.276380    0.621488    0.271800    0.8707330  1.0000000
O2   core     0.568458    0.330243    0.939824    0.8707330  1.0000000
O2   core     0.987256    0.043971    0.611319    0.8707330  1.0000000
O1   core     0.372822    0.291106    0.416191    1.7339570  1.0000000
O2   core     0.310459    0.466509    0.756354    0.8707330  1.0000000
O2   core     0.147535    0.226942    0.087337    0.8707330  1.0000000
O2   core     0.842396    0.697709    0.921710    0.8707330  1.0000000
O2   core     0.910182    0.532300    0.254644    0.8707330  1.0000000
O2   core     0.081468    0.774730    0.590142    0.8707330  1.0000000
O2   core     0.914929    0.766444    0.734932    0.8707330  1.0000000
O2   core     0.085189    0.700943    0.398166    0.8707330  1.0000000
O2   core     0.843089    0.533613    0.065616    0.8707330  1.0000000
O2   core     0.309839    0.232149    0.232303    0.8707330  1.0000000
O2   core     0.144614    0.304222    0.900798    0.8707330  1.0000000
O3   core     0.384886    0.473307    0.567586    1.3304310  1.0000000
O3   core     0.398888    0.545722    0.437565    1.3304310  1.0000000
O2   core     0.078435    0.248928    0.773517    0.8707330  1.0000000
O2   core     0.365781    0.214815    0.106951    0.8707330  1.0000000
O2   core     0.828556    0.466225    0.938902    0.8707330  1.0000000
O2   core     0.142527    0.749239    0.270793    0.8707330  1.0000000
O2   core     0.860209    0.783669    0.608130    0.8707330  1.0000000
O2   core     0.147130    0.781918    0.716880    0.8707330  1.0000000
O2   core     0.862379    0.470734    0.381966    0.8707330  1.0000000
O2   core     0.828759    0.750691    0.048715    0.8707330  1.0000000
O2   core     0.079103    0.216622    0.213802    0.8707330  1.0000000
O2   core     0.362075    0.535851    0.883799    0.8707330  1.0000000
O3   core     0.404509    0.240012    0.550865    1.3304310  1.0000000
O2   core     0.837138    0.324672    0.308439    0.8707330  1.0000000
O2   core     0.291449    0.911250    0.644553    0.8707330  1.0000000
O2   core     0.703866    0.768652    0.975336    0.8707330  1.0000000
O2   core     0.382131    0.677179    0.809722    0.8707330  1.0000000
O2   core     0.936256    0.089583    0.140436    0.8707330  1.0000000
O3   core     0.524549    0.222887    0.476393    1.3304310  1.0000000
O2   core     0.934815    0.230983    0.846745    0.8707330  1.0000000
O2   core     0.521134    0.672496    0.512804    0.8707330  1.0000000
O2   core     0.381826    0.089477    0.181029    0.8707330  1.0000000
O2   core     0.291243    0.771873    0.343227    0.8707330  1.0000000
O2   core     0.703588    0.323121    0.012052    0.8707330  1.0000000
O2   core     0.843348    0.905872    0.682721    0.8707330  1.0000000
O2   core     0.205425    0.561943    0.397917    0.8707330  1.0000000
O2   core     0.054292    0.025286    0.738107    0.8707330  1.0000000
O2   core     0.583521    0.412135    0.067161    0.8707330  1.0000000
O2   core     0.023481    0.442009    0.901130    0.8707330  1.0000000
O2   core     0.169312    0.971054    0.234622    0.8707330  1.0000000
O2   core     0.636658    0.577838    0.564854    0.8707330  1.0000000
O2   core     0.172016    0.587345    0.754572    0.8707330  1.0000000
O3   core     0.648017    0.451544    0.419820    1.3304310  1.0000000
O2   core     0.025545    0.968592    0.086477    0.8707330  1.0000000
O2   core     0.047418    0.408214    0.253305    0.8707330  1.0000000
O2   core     0.582608    0.558730    0.920320    0.8707330  1.0000000
O2   core     0.203664    0.033807    0.590404    0.8707330  1.0000000
O2   core     0.197039    0.165490    0.665655    0.8707330  1.0000000
O2   core     0.445318    0.416119    0.993931    0.8707330  1.0000000
O2   core     0.193074    0.414615    0.325247    0.8707330  1.0000000
O2   core     0.028623    0.831703    0.160550    0.8707330  1.0000000
O2   core     0.778656    0.583768    0.493867    0.8707330  1.0000000
O2   core     0.028748    0.582936    0.827563    0.8707330  1.0000000
F    core     0.063229    0.902162    0.662886    0.5600000  1.0000000
F    core     0.707490    0.547749    0.993521    0.5600000  1.0000000
F    core     0.061622    0.550135    0.325948    0.5600000  1.0000000
F    core     0.161689    0.094275    0.160380    0.5600000  1.0000000
F    core     0.477562    0.421846    0.488819    0.5600000  1.0000000
F    core     0.160648    0.452062    0.827911    0.5600000  1.0000000
O2   shel     0.543642    0.004740    0.414182   -2.8707330  1.0000000
O2   shel     0.614146    0.924099    0.744770   -2.8707330  1.0000000
O2   shel     0.687280    0.075051    0.075706   -2.8707330  1.0000000
O2   shel     0.686946    0.000534    0.910862   -2.8707330  1.0000000
O3   shel     0.617691    0.071276    0.238848   -3.3304309  1.0000000
O2   shel     0.537698    0.919985    0.578326   -2.8707330  1.0000000
O2   shel     0.964355    0.583688    0.744211   -2.8707330  1.0000000
O2   shel     0.026856    0.765099    0.077164   -2.8707330  1.0000000
O2   shel     0.855406    0.656825    0.410862   -2.8707330  1.0000000
O2   shel     0.258571    0.413574    0.242057   -2.8707330  1.0000000
O3   shel     0.196453    0.231961    0.584365   -3.3304309  1.0000000
O2   shel     0.377142    0.352444    0.911429   -2.8707330  1.0000000
O3   shel     0.188275    0.350117    0.407601   -3.3304309  1.0000000
O2   shel     0.378615    0.411474    0.077024   -2.8707330  1.0000000
O2   shel     0.261918    0.232890    0.747801   -2.8707330  1.0000000
O2   shel     0.025703    0.648863    0.910815   -2.8707330  1.0000000
O2   shel     0.850424    0.589873    0.577887   -2.8707330  1.0000000
O2   shel     0.960875    0.765248    0.243582   -2.8707330  1.0000000
O2   shel     0.737959    0.222909    0.381890   -2.8707330  1.0000000
O2   shel     0.396447    0.903903    0.715978   -2.8707330  1.0000000
O2   shel     0.706970    0.877525    0.046840   -2.8707330  1.0000000
O2   shel     0.489834    0.783847    0.881448   -2.8707330  1.0000000
O2   shel     0.833829    0.097522    0.212152   -2.8707330  1.0000000
O2   shel     0.528696    0.119327    0.548207   -2.8707330  1.0000000
O2   shel     0.829925    0.120464    0.775089   -2.8707330  1.0000000
O2   shel     0.526292    0.791671    0.442588   -2.8707330  1.0000000
O2   shel     0.491518    0.093316    0.108597   -2.8707330  1.0000000
O3   shel     0.386199    0.865138    0.269562   -3.3304309  1.0000000
O2   shel     0.706610    0.216779    0.940751   -2.8707330  1.0000000
O2   shel     0.737339    0.909098    0.610951   -2.8707330  1.0000000
O2   shel     0.540543    0.858285    0.661972   -2.8707330  1.0000000
O2   shel     0.753304    0.069733    0.993556   -2.8707330  1.0000000
O3   shel     0.554889    0.059023    0.329456   -3.3304309  1.0000000
O2   shel     0.691323    0.145453    0.158040   -2.8707330  1.0000000
O2   shel     0.463935    0.922983    0.495739   -2.8707330  1.0000000
O2   shel     0.681379    0.929409    0.828158   -2.8707330  1.0000000
O3   shel     0.522048    0.196033    0.387818   -3.3304309  1.0000000
O2   shel     0.408502    0.703052    0.727660   -2.8707330  1.0000000
O2   shel     0.909256    0.089352    0.058707   -2.8707330  1.0000000
O2   shel     0.702916    0.795395    0.893409   -2.8707330  1.0000000
O2   shel     0.814162    0.296303    0.226111   -2.8707330  1.0000000
O2   shel     0.319072    0.913213    0.562427   -2.8707330  1.0000000
O2   shel     0.817446    0.906352    0.764268   -2.8707330  1.0000000
O2   shel     0.322086    0.797392    0.426154   -2.8707330  1.0000000
O2   shel     0.703434    0.296321    0.093601   -2.8707330  1.0000000
O3   shel     0.403029    0.096742    0.263193   -3.3304309  1.0000000
O2   shel     0.907972    0.206242    0.928721   -2.8707330  1.0000000
O2   shel     0.529667    0.706008    0.596722   -2.8707330  1.0000000
O2   shel     0.940310    0.655085    0.661661   -2.8707330  1.0000000
O2   shel     0.957449    0.673569    0.993830   -2.8707330  1.0000000
O2   shel     0.939981    0.675301    0.326894   -2.8707330  1.0000000
O2   shel     0.286158    0.344436    0.159592   -2.8707330  1.0000000
O1   shel     0.245709    0.311959    0.495304   -3.7339570  1.0000000
O2   shel     0.284901    0.329261    0.829136   -2.8707330  1.0000000
O2   shel     0.988167    0.344144    0.377063   -2.8707330  1.0000000
O2   shel     0.272924    0.034659    0.715874   -2.8707330  1.0000000
O2   shel     0.575363    0.622609    0.045360   -2.8707330  1.0000000
O2   shel     0.234784    0.660709    0.879233   -2.8707330  1.0000000
O2   shel     0.952213    0.962624    0.210989   -2.8707330  1.0000000
O2   shel     0.655715    0.378900    0.543455   -2.8707330  1.0000000
O2   shel     0.952750    0.375736    0.776456   -2.8707330  1.0000000
O2   shel     0.652257    0.661756    0.443598   -2.8707330  1.0000000
O2   shel     0.236545    0.961623    0.110188   -2.8707330  1.0000000
O2   shel     0.266299    0.618074    0.273979   -2.8707330  1.0000000
O2   shel     0.575301    0.340313    0.942097   -2.8707330  1.0000000
O2   shel     0.989986    0.036869    0.613532   -2.8707330  1.0000000
O1   shel     0.379906    0.297883    0.419264   -3.7339570  1.0000000
O2   shel     0.302810    0.465981    0.759455   -2.8707330  1.0000000
O2   shel     0.147987    0.220075    0.090445   -2.8707330  1.0000000
O2   shel     0.835372    0.690048    0.924778   -2.8707330  1.0000000
O2   shel     0.918026    0.533126    0.257705   -2.8707330  1.0000000
O2   shel     0.080635    0.781304    0.593291   -2.8707330  1.0000000
O2   shel     0.922620    0.773632    0.731910   -2.8707330  1.0000000
O2   shel     0.084065    0.693269    0.395067   -2.8707330  1.0000000
O2   shel     0.836039    0.534233    0.062583   -2.8707330  1.0000000
O2   shel     0.301997    0.225017    0.229292   -2.8707330  1.0000000
O2   shel     0.145285    0.311898    0.897699   -2.8707330  1.0000000
O3   shel     0.393632    0.475352    0.564983   -3.3304309  1.0000000
O3   shel     0.406316    0.546145    0.440304   -3.3304309  1.0000000
O2   shel     0.081106    0.256960    0.776116   -2.8707330  1.0000000
O2   shel     0.357554    0.209591    0.109353   -2.8707330  1.0000000
O2   shel     0.823251    0.468886    0.941438   -2.8707330  1.0000000
O2   shel     0.139416    0.740929    0.273321   -2.8707330  1.0000000
O2   shel     0.868740    0.789022    0.610661   -2.8707330  1.0000000
O2   shel     0.144443    0.787312    0.714442   -2.8707330  1.0000000
O2   shel     0.870601    0.473611    0.379421   -2.8707330  1.0000000
O2   shel     0.823506    0.742740    0.046182   -2.8707330  1.0000000
O2   shel     0.082029    0.211328    0.211272   -2.8707330  1.0000000
O2   shel     0.354184    0.533064    0.881182   -2.8707330  1.0000000
O3   shel     0.410519    0.246786    0.548207   -3.3304309  1.0000000
O2   shel     0.847205    0.334276    0.309253   -2.8707330  1.0000000
O2   shel     0.281705    0.910811    0.645447   -2.8707330  1.0000000
O2   shel     0.704079    0.759139    0.976197   -2.8707330  1.0000000
O2   shel     0.372461    0.667408    0.810576   -2.8707330  1.0000000
O2   shel     0.946141    0.089964    0.141312   -2.8707330  1.0000000
O3   shel     0.524283    0.231156    0.477908   -3.3304309  1.0000000
O2   shel     0.944596    0.240571    0.845849   -2.8707330  1.0000000
O2   shel     0.521000    0.664174    0.512170   -2.8707330  1.0000000
O2   shel     0.372602    0.090050    0.179999   -2.8707330  1.0000000
O2   shel     0.281451    0.761905    0.342570   -2.8707330  1.0000000
O2   shel     0.703945    0.332942    0.011138   -2.8707330  1.0000000
O2   shel     0.853039    0.905882    0.681804   -2.8707330  1.0000000
O2   shel     0.200489    0.562548    0.394863   -2.8707330  1.0000000
O2   shel     0.054032    0.020600    0.734764   -2.8707330  1.0000000
O2   shel     0.588441    0.416891    0.063813   -2.8707330  1.0000000
O2   shel     0.028229    0.441792    0.897875   -2.8707330  1.0000000
O2   shel     0.169564    0.975842    0.231321   -2.8707330  1.0000000
O2   shel     0.634136    0.575344    0.562149   -2.8707330  1.0000000
O2   shel     0.172178    0.582555    0.757883   -2.8707330  1.0000000
O3   shel     0.645841    0.453403    0.422791   -3.3304309  1.0000000
O2   shel     0.030200    0.973684    0.089798   -2.8707330  1.0000000
O2   shel     0.047606    0.413334    0.256524   -2.8707330  1.0000000
O2   shel     0.587703    0.559088    0.923655   -2.8707330  1.0000000
O2   shel     0.199070    0.028271    0.593644   -2.8707330  1.0000000
O2   shel     0.191501    0.154486    0.665703   -2.8707330  1.0000000
O2   shel     0.456630    0.421834    0.993950   -2.8707330  1.0000000
O2   shel     0.187747    0.420302    0.325084   -2.8707330  1.0000000
O2   shel     0.034197    0.842866    0.160553   -2.8707330  1.0000000
O2   shel     0.769104    0.578949    0.493961   -2.8707330  1.0000000
O2   shel     0.034260    0.577406    0.827596   -2.8707330  1.0000000
F    shel     0.062766    0.901513    0.662822   -1.5600000  1.0000000
F    shel     0.707740    0.547852    0.993486   -1.5600000  1.0000000
F    shel     0.061227    0.550503    0.325935   -1.5600000  1.0000000
F    shel     0.161923    0.094598    0.160388   -1.5600000  1.0000000
F    shel     0.471438    0.418113    0.488050   -1.5600000  1.0000000
F    shel     0.160879    0.451838    0.827865   -1.5600000  1.0000000

space
P 1

species
Si     core    4.000000                  
O1     core    1.733957                  
O1     shel   -3.733957                  
O2     core    0.870733                  
O2     shel   -2.870733                  
O3     core    1.330431                  
O3     shel   -3.330431                  
F      core    0.560000                  
F      shel   -1.560000                  
Ge     core    4.000000
end

buck     
Si    core O1    shel  1315.24780     0.317759  10.14112      0.00 16.00
buck     
Si    core O2    shel  1315.24780     0.317759  10.14112      0.00 16.00
buck     
Si    core O3    shel  1315.24780     0.317759  10.14112      0.00 16.00
buck     
Ge    core O1    shel  1497.39960     0.325646  16.80860      0.00 16.00
buck     
Ge    core O2    shel  1497.39960     0.325646  16.80860      0.00 16.00
buck     
Ge    core O3    shel  1497.39960     0.325646  16.80860      0.00 16.00
buck     
O1    shel O1    shel  22764.0000     0.149000  10.93704      0.00 16.00
buck     
O1    shel O2    shel  22764.0000     0.149000  10.93704      0.00 16.00
buck     
O1    shel O3    shel  22764.0000     0.149000  10.93704      0.00 16.00
buck     
O2    shel O2    shel  22764.0000     0.149000  10.93704      0.00 16.00
buck     
O2    shel O3    shel  22764.0000     0.149000  10.93704      0.00 16.00
buck     
O3    shel O3    shel  22764.0000     0.149000  10.93704      0.00 16.00
buck     
Si    core F     shel  976.828870     0.282000  0.000000      0.00 16.00
buck     
Ge    core F     shel  681.472880     0.320000  0.000000      0.00 16.00
buck     
F     shel F     shel  540.397610     0.262490  0.000000      0.00 16.00
buck     
O1    shel F     shel  1675.00000     0.268000  0.000000      0.00 16.00
buck     
O2    shel F     shel  1675.00000     0.268000  0.000000      0.00 16.00
buck     
O3    shel F     shel  1675.00000     0.268000  0.000000      0.00 16.00
spring
O2     75.969800    
spring
O3     128.14279    
spring
O1     180.31577    
spring
F      33.452757    
three       regular  
Si    core O1    shel O1    shel 1.2614      109.47000 &
  0.000  1.900  0.000  1.900  0.000  3.500
three       regular  
Si    core O1    shel O2    shel 1.2614      109.47000 &
  0.000  1.900  0.000  1.900  0.000  3.500
three       regular  
Si    core O2    shel O2    shel 1.2614      109.47000 &
  0.000  1.900  0.000  1.900  0.000  3.500

print 1
