# 
# Keywords:
# 
opti conp qok rfo
# 
# Options:
# 
cell
  14.547930  14.547930  16.077120  90.000020  90.000000 120.000000
fractional  1   
Si    core 0.1560699 0.0000000 0.1111100 4.00000000 1.00000 0.00000             
Si    core 0.1558054 0.9999851 0.4444494 4.00000000 1.00000 0.00000             
Si    core 0.1558060 0.9999885 0.7777739 4.00000000 1.00000 0.00000             
Si    core 0.1557995 0.3332949 0.1111144 4.00000000 1.00000 0.00000             
Si    core 0.1557956 0.3333069 0.4444390 4.00000000 1.00000 0.00000             
Si    core 0.1557931 0.3333048 0.7777865 4.00000000 1.00000 0.00000             
Si    core 0.1558033 0.6666415 0.1111183 4.00000000 1.00000 0.00000             
Si    core 0.1557921 0.6666318 0.4444558 4.00000000 1.00000 0.00000             
Si    core 0.1557896 0.6666308 0.7777624 4.00000000 1.00000 0.00000             
Si    core 0.4891257 0.9999916 0.1111123 4.00000000 1.00000 0.00000             
Si    core 0.4891355 0.9999724 0.4444542 4.00000000 1.00000 0.00000             
Si    core 0.4891447 0.9999976 0.7777665 4.00000000 1.00000 0.00000             
Si    core 0.4891639 0.3333504 0.1111045 4.00000000 1.00000 0.00000             
Si    core 0.4891491 1/3       0.4444630 4.00000000 1.00000 0.00000             
Si    core 0.4891470 1/3       0.7777602 4.00000000 1.00000 0.00000             
Si    core 0.4891248 2/3       0.1111131 4.00000000 1.00000 0.00000             
Si    core 0.4891234 0.6666502 0.4444484 4.00000000 1.00000 0.00000             
Si    core 0.4891272 0.6666786 0.7777867 4.00000000 1.00000 0.00000             
Si    core 0.8224595 0.9999913 0.1111110 4.00000000 1.00000 0.00000             
Si    core 0.8224688 0.9999710 0.4444314 4.00000000 1.00000 0.00000             
Si    core 0.8224777 0.9999983 0.7777944 4.00000000 1.00000 0.00000             
Si    core 0.8224583 1/3       0.1111097 4.00000000 1.00000 0.00000             
Si    core 0.8224443 0.3332887 0.4444355 4.00000000 1.00000 0.00000             
Si    core 0.8224578 0.3333202 0.7777744 4.00000000 1.00000 0.00000             
Si    core 0.8225015 0.6666955 0.1111077 4.00000000 1.00000 0.00000             
Si    core 0.8224795 2/3       0.4444362 4.00000000 1.00000 0.00000             
Si    core 0.8224771 2/3       0.7777839 4.00000000 1.00000 0.00000             
Si    core 0.0012745 0.1544930 0.2222256 4.00000000 1.00000 0.00000             
Si    core 0.0012617 0.1545076 0.5555511 4.00000000 1.00000 0.00000             
Si    core 0.0012829 0.1544934 0.8889271 4.00000000 1.00000 0.00000             
Si    core 0.0012662 0.4878427 0.2222247 4.00000000 1.00000 0.00000             
Si    core 0.0012431 0.4878201 0.5555533 4.00000000 1.00000 0.00000             
Si    core 0.0012583 0.4878457 0.8888926 4.00000000 1.00000 0.00000             
Si    core 0.0013568 0.8212284 0.2221920 4.00000000 1.00000 0.00000             
Si    core 0.0012649 0.8211882 0.5555603 4.00000000 1.00000 0.00000             
Si    core 0.0012846 0.8211928 0.8888902 4.00000000 1.00000 0.00000             
Si    core 0.3347103 0.1545692 0.2222568 4.00000000 1.00000 0.00000             
Si    core 0.3346060 0.1545228 0.5555547 4.00000000 1.00000 0.00000             
Si    core 0.3346280 0.1545309 0.8888623 4.00000000 1.00000 0.00000             
Si    core 0.3346002 0.4878486 0.2222210 4.00000000 1.00000 0.00000             
Si    core 0.3345908 0.4878439 0.5555530 4.00000000 1.00000 0.00000             
Si    core 0.3346019 0.4878607 0.8888846 4.00000000 1.00000 0.00000             
Si    core 0.3346097 0.8211839 0.2222276 4.00000000 1.00000 0.00000             
Si    core 0.3345950 0.8211700 0.5555540 4.00000000 1.00000 0.00000             
Si    core 0.3346416 0.8211379 0.8888420 4.00000000 1.00000 0.00000             
Si    core 0.6679528 0.1545164 0.2222226 4.00000000 1.00000 0.00000             
Si    core 0.6679294 0.1544917 0.5555600 4.00000000 1.00000 0.00000             
Si    core 0.6679376 0.1545163 0.8888878 4.00000000 1.00000 0.00000             
Si    core 0.6679630 0.4878902 0.2222204 4.00000000 1.00000 0.00000             
Si    core 0.6679429 0.4878980 0.5555640 4.00000000 1.00000 0.00000             
Si    core 0.6679346 0.4878591 0.8888871 4.00000000 1.00000 0.00000             
Si    core 0.6679395 0.8211839 0.2222184 4.00000000 1.00000 0.00000             
Si    core 0.6679350 0.8211801 0.5555518 4.00000000 1.00000 0.00000             
Si    core 0.6679436 0.8211960 0.8888961 4.00000000 1.00000 0.00000             
Si    core 0.1800919 0.1787893 1/3       4.00000000 1.00000 0.00000             
Si    core 0.1800731 0.1787929 2/3       4.00000000 1.00000 0.00000             
Si    core 0.1801275 0.1787748 0.0000233 4.00000000 1.00000 0.00000             
Si    core 0.1800734 0.5121188 1/3       4.00000000 1.00000 0.00000             
Si    core 0.1800404 0.5120855 2/3       4.00000000 1.00000 0.00000             
Si    core 0.1800617 0.5121020 0.0000048 4.00000000 1.00000 0.00000             
Si    core 0.1800966 0.8454530 0.3333574 4.00000000 1.00000 0.00000             
Si    core 0.1800738 0.8454549 2/3       4.00000000 1.00000 0.00000             
Si    core 0.1801351 0.8454272 0.9999654 4.00000000 1.00000 0.00000             
Si    core 0.5135065 0.1788444 0.3333816 4.00000000 1.00000 0.00000             
Si    core 0.5134192 0.1788069 2/3       4.00000000 1.00000 0.00000             
Si    core 0.5134153 0.1788001 0.9999948 4.00000000 1.00000 0.00000             
Si    core 0.5134106 0.5121319 1/3       4.00000000 1.00000 0.00000             
Si    core 0.5134122 0.5121590 2/3       4.00000000 1.00000 0.00000             
Si    core 0.5134118 0.5121445 0.9999930 4.00000000 1.00000 0.00000             
Si    core 0.5134170 0.8454594 1/3       4.00000000 1.00000 0.00000             
Si    core 0.5134196 0.8454800 2/3       4.00000000 1.00000 0.00000             
Si    core 0.5134219 0.8454662 0.0000010 4.00000000 1.00000 0.00000             
Si    core 0.8467492 0.1787788 1/3       4.00000000 1.00000 0.00000             
Si    core 0.8467477 0.1787955 2/3       4.00000000 1.00000 0.00000             
Si    core 0.8467425 0.1787986 0.0000031 4.00000000 1.00000 0.00000             
Si    core 0.8467452 0.5121169 1/3       4.00000000 1.00000 0.00000             
Si    core 0.8467422 0.5121356 2/3       4.00000000 1.00000 0.00000             
Si    core 0.8467371 0.5121341 0.0000017 4.00000000 1.00000 0.00000             
Si    core 0.8467897 0.8454858 0.3332938 4.00000000 1.00000 0.00000             
Si    core 0.8467437 0.8454706 2/3       4.00000000 1.00000 0.00000             
Si    core 0.8467659 0.8454912 0.9999908 4.00000000 1.00000 0.00000             
O2    core 0.1381401 0.0927865 0.0746066 0.87073300 1.00000 0.00000             
O2    core 0.1379299 0.0927813 0.4079116 0.87073300 1.00000 0.00000             
O2    core 0.1379211 0.0927817 0.7412421 0.87073300 1.00000 0.00000             
O2    core 0.1379034 0.4260772 0.0745720 0.87073300 1.00000 0.00000             
O2    core 0.1379137 0.4261026 0.4079070 0.87073300 1.00000 0.00000             
O2    core 0.1378892 0.4260868 0.7412497 0.87073300 1.00000 0.00000             
O2    core 0.1379373 0.7594354 0.0745587 0.87073300 1.00000 0.00000             
O2    core 0.1379344 0.7594497 0.4079413 0.87073300 1.00000 0.00000             
O2    core 0.1379248 0.7594456 0.7412494 0.87073300 1.00000 0.00000             
O2    core 0.4712491 0.0927892 0.0745754 0.87073300 1.00000 0.00000             
O2    core 0.4712980 0.0928053 0.4079412 0.87073300 1.00000 0.00000             
O2    core 0.4712578 0.0927964 0.7412475 0.87073300 1.00000 0.00000             
O2    core 0.4712598 0.4261303 0.0745705 0.87073300 1.00000 0.00000             
O2    core 0.4712463 0.4261107 0.4079022 0.87073300 1.00000 0.00000             
O2    core 0.4712624 0.4261350 0.7412359 0.87073300 1.00000 0.00000             
O2    core 0.4712434 0.7594542 0.0745807 0.87073300 1.00000 0.00000             
O2    core 0.4712513 0.7594502 0.4079136 0.87073300 1.00000 0.00000             
O2    core 0.4712590 0.7594844 0.7412538 0.87073300 1.00000 0.00000             
O2    core 0.8045796 0.0927932 0.0745884 0.87073300 1.00000 0.00000             
O2    core 0.8045793 0.0927636 0.4079014 0.87073300 1.00000 0.00000             
O2    core 0.8046071 0.0928021 0.7412636 0.87073300 1.00000 0.00000             
O2    core 0.8045808 0.4261261 0.0745837 0.87073300 1.00000 0.00000             
O2    core 0.8045621 0.4260847 0.4079042 0.87073300 1.00000 0.00000             
O2    core 0.8045715 0.4261134 0.7412416 0.87073300 1.00000 0.00000             
O2    core 0.8046189 0.7594915 0.0745778 0.87073300 1.00000 0.00000             
O2    core 0.8046459 0.7594748 0.4078720 0.87073300 1.00000 0.00000             
O2    core 0.8045936 0.7594591 0.7412507 0.87073300 1.00000 0.00000             
O2    core 0.2420133 0.0438314 0.1857210 0.87073300 1.00000 0.00000             
O2    core 0.2418021 0.0438382 0.5190388 0.87073300 1.00000 0.00000             
O2    core 0.2418090 0.0438437 0.8523591 0.87073300 1.00000 0.00000             
O2    core 0.2417948 0.3771655 0.1857052 0.87073300 1.00000 0.00000             
O2    core 0.2417988 0.3771599 0.5190252 0.87073300 1.00000 0.00000             
O2    core 0.2418122 0.3771778 0.8523578 0.87073300 1.00000 0.00000             
O2    core 0.2418023 0.7105040 0.1857057 0.87073300 1.00000 0.00000             
O2    core 0.2417977 0.7104783 0.5190407 0.87073300 1.00000 0.00000             
O2    core 0.2418311 0.7104615 0.8523218 0.87073300 1.00000 0.00000             
O2    core 0.5751265 0.0438469 0.1857020 0.87073300 1.00000 0.00000             
O2    core 0.5751288 0.0437984 0.5190494 0.87073300 1.00000 0.00000             
O2    core 0.5751320 0.0438363 0.8523632 0.87073300 1.00000 0.00000             
O2    core 0.5751789 0.3772154 0.1856791 0.87073300 1.00000 0.00000             
O2    core 0.5751191 0.3772122 0.5190679 0.87073300 1.00000 0.00000             
O2    core 0.5751300 0.3771819 0.8523597 0.87073300 1.00000 0.00000             
O2    core 0.5751269 0.7105038 0.1856998 0.87073300 1.00000 0.00000             
O2    core 0.5751261 0.7104966 0.5190348 0.87073300 1.00000 0.00000             
O2    core 0.5751331 0.7105195 0.8523707 0.87073300 1.00000 0.00000             
O2    core 0.9084603 0.0438183 0.1857004 0.87073300 1.00000 0.00000             
O2    core 0.9084599 0.0438267 0.5190265 0.87073300 1.00000 0.00000             
O2    core 0.9084733 0.0438243 0.8523864 0.87073300 1.00000 0.00000             
O2    core 0.9084624 0.3771682 0.1856947 0.87073300 1.00000 0.00000             
O2    core 0.9084346 0.3771445 0.5190297 0.87073300 1.00000 0.00000             
O2    core 0.9084550 0.3771701 0.8523640 0.87073300 1.00000 0.00000             
O2    core 0.9085300 0.7105610 0.1856699 0.87073300 1.00000 0.00000             
O2    core 0.9084587 0.7105093 0.5190382 0.87073300 1.00000 0.00000             
O2    core 0.9084764 0.7105101 0.8523729 0.87073300 1.00000 0.00000             
O2    core 0.2907768 0.1966750 0.2968102 0.87073300 1.00000 0.00000             
O2    core 0.2907561 0.1966937 0.6301266 0.87073300 1.00000 0.00000             
O2    core 0.2908059 0.1967418 0.9634220 0.87073300 1.00000 0.00000             
O2    core 0.2907570 0.5300167 0.2968003 0.87073300 1.00000 0.00000             
O2    core 0.2907277 0.5299877 0.6301332 0.87073300 1.00000 0.00000             
O2    core 0.2907439 0.5300035 0.9634690 0.87073300 1.00000 0.00000             
O2    core 0.2907761 0.8633425 0.2968205 0.87073300 1.00000 0.00000             
O2    core 0.2907483 0.8633402 0.6301277 0.87073300 1.00000 0.00000             
O2    core 0.2907871 0.8632675 0.9634335 0.87073300 1.00000 0.00000             
O2    core 0.6241701 0.1966990 0.2968397 0.87073300 1.00000 0.00000             
O2    core 0.6240905 0.1966771 0.6301292 0.87073300 1.00000 0.00000             
O2    core 0.6240962 0.1966827 0.9634696 0.87073300 1.00000 0.00000             
O2    core 0.6240958 0.5300306 0.2968009 0.87073300 1.00000 0.00000             
O2    core 0.6241074 0.5300813 0.6301380 0.87073300 1.00000 0.00000             
O2    core 0.6240918 0.5300313 0.9634627 0.87073300 1.00000 0.00000             
O2    core 0.6240984 0.8633481 0.2968028 0.87073300 1.00000 0.00000             
O2    core 0.6240928 0.8633568 0.6301250 0.87073300 1.00000 0.00000             
O2    core 0.6241154 0.8633614 0.9634899 0.87073300 1.00000 0.00000             
O2    core 0.9574352 0.1966682 0.2968039 0.87073300 1.00000 0.00000             
O2    core 0.9574222 0.1966796 0.6301307 0.87073300 1.00000 0.00000             
O2    core 0.9574246 0.1966802 0.9634822 0.87073300 1.00000 0.00000             
O2    core 0.9574240 0.5299977 0.2968123 0.87073300 1.00000 0.00000             
O2    core 0.9574110 0.5299993 0.6301327 0.87073300 1.00000 0.00000             
O2    core 0.9574149 0.5300169 0.9634684 0.87073300 1.00000 0.00000             
O2    core 0.9574749 0.8634247 0.2967298 0.87073300 1.00000 0.00000             
O2    core 0.9574235 0.8633633 0.6301345 0.87073300 1.00000 0.00000             
O2    core 0.9574433 0.8633693 0.9634614 0.87073300 1.00000 0.00000             
O2    core 0.0451198 0.2404862 0.1476335 0.87073300 1.00000 0.00000             
O2    core 0.0451136 0.2405064 0.4809624 0.87073300 1.00000 0.00000             
O2    core 0.0451427 0.2404890 0.8143362 0.87073300 1.00000 0.00000             
O2    core 0.0451157 0.5738530 0.1476435 0.87073300 1.00000 0.00000             
O2    core 0.0451067 0.5738291 0.4809716 0.87073300 1.00000 0.00000             
O2    core 0.0451127 0.5738527 0.8143100 0.87073300 1.00000 0.00000             
O2    core 0.0453477 0.9072134 0.1476066 0.87073300 1.00000 0.00000             
O2    core 0.0451209 0.9071841 0.4809693 0.87073300 1.00000 0.00000             
O2    core 0.0451267 0.9071850 0.8142975 0.87073300 1.00000 0.00000             
O2    core 0.3785005 0.2405557 0.1476601 0.87073300 1.00000 0.00000             
O2    core 0.3784629 0.2405188 0.4809635 0.87073300 1.00000 0.00000             
O2    core 0.3784670 0.2405098 0.8142609 0.87073300 1.00000 0.00000             
O2    core 0.3784447 0.5738489 0.1476334 0.87073300 1.00000 0.00000             
O2    core 0.3784382 0.5738519 0.4809702 0.87073300 1.00000 0.00000             
O2    core 0.3784441 0.5738764 0.8143077 0.87073300 1.00000 0.00000             
O2    core 0.3784487 0.9071883 0.1476423 0.87073300 1.00000 0.00000             
O2    core 0.3784425 0.9071716 0.4809644 0.87073300 1.00000 0.00000             
O2    core 0.3784685 0.9071609 0.8142705 0.87073300 1.00000 0.00000             
O2    core 0.7117796 0.2405214 0.1476377 0.87073300 1.00000 0.00000             
O2    core 0.7117656 0.2404772 0.4809585 0.87073300 1.00000 0.00000             
O2    core 0.7117788 0.2405132 0.8142975 0.87073300 1.00000 0.00000             
O2    core 0.7118247 0.5739127 0.1476519 0.87073300 1.00000 0.00000             
O2    core 0.7117850 0.5738802 0.4809614 0.87073300 1.00000 0.00000             
O2    core 0.7117927 0.5738604 0.8143012 0.87073300 1.00000 0.00000             
O2    core 0.7117764 0.9071848 0.1476295 0.87073300 1.00000 0.00000             
O2    core 0.7117883 0.9071652 0.4809535 0.87073300 1.00000 0.00000             
O2    core 0.7117875 0.9072003 0.8143114 0.87073300 1.00000 0.00000             
O2    core 0.1979767 0.2894427 0.0365526 0.87073300 1.00000 0.00000             
O2    core 0.1979710 0.2894667 0.3698629 0.87073300 1.00000 0.00000             
O2    core 0.1979540 0.2894684 0.7031982 0.87073300 1.00000 0.00000             
O2    core 0.1979621 0.6227790 0.0365486 0.87073300 1.00000 0.00000             
O2    core 0.1979540 0.6227935 0.3698699 0.87073300 1.00000 0.00000             
O2    core 0.1979158 0.6227686 0.7031714 0.87073300 1.00000 0.00000             
O2    core 0.1981903 0.9561676 0.0365066 0.87073300 1.00000 0.00000             
O2    core 0.1979786 0.9561353 0.3698790 0.87073300 1.00000 0.00000             
O2    core 0.1979704 0.9561385 0.7031986 0.87073300 1.00000 0.00000             
O2    core 0.5313055 0.2894823 0.0365251 0.87073300 1.00000 0.00000             
O2    core 0.5313854 0.2895178 0.3699178 0.87073300 1.00000 0.00000             
O2    core 0.5313304 0.2895003 0.7031875 0.87073300 1.00000 0.00000             
O2    core 0.5312949 0.6228192 0.0365318 0.87073300 1.00000 0.00000             
O2    core 0.5312905 0.6228050 0.3698706 0.87073300 1.00000 0.00000             
O2    core 0.5312810 0.6228280 0.7032037 0.87073300 1.00000 0.00000             
O2    core 0.5312809 0.9561368 0.0365303 0.87073300 1.00000 0.00000             
O2    core 0.5312994 0.9561363 0.3698673 0.87073300 1.00000 0.00000             
O2    core 0.5313233 0.9561731 0.7031800 0.87073300 1.00000 0.00000             
O2    core 0.8646211 0.2894795 0.0365274 0.87073300 1.00000 0.00000             
O2    core 0.8646293 0.2894545 0.3698621 0.87073300 1.00000 0.00000             
O2    core 0.8646322 0.2894776 0.7031978 0.87073300 1.00000 0.00000             
O2    core 0.8646302 0.6228187 0.0365249 0.87073300 1.00000 0.00000             
O2    core 0.8646487 0.6227955 0.3698814 0.87073300 1.00000 0.00000             
O2    core 0.8646497 0.6228185 0.7032099 0.87073300 1.00000 0.00000             
O2    core 0.8646359 0.9561655 0.0365230 0.87073300 1.00000 0.00000             
O2    core 0.8646542 0.9561491 0.3698497 0.87073300 1.00000 0.00000             
O2    core 0.8646312 0.9561477 0.7032092 0.87073300 1.00000 0.00000             
O2    core 0.0940827 0.1366262 0.2587529 0.87073300 1.00000 0.00000             
O2    core 0.0940602 0.1366305 0.5920845 0.87073300 1.00000 0.00000             
O2    core 0.0940422 0.1365754 0.9254907 0.87073300 1.00000 0.00000             
O2    core 0.0940680 0.4699646 0.2587478 0.87073300 1.00000 0.00000             
O2    core 0.0940297 0.4699178 0.5920805 0.87073300 1.00000 0.00000             
O2    core 0.0940502 0.4699597 0.9254255 0.87073300 1.00000 0.00000             
O2    core 0.0940786 0.8032735 0.2587871 0.87073300 1.00000 0.00000             
O2    core 0.0940545 0.8032984 0.5920950 0.87073300 1.00000 0.00000             
O2    core 0.0940922 0.8033238 0.9254154 0.87073300 1.00000 0.00000             
O2    core 0.4275274 0.1367362 0.2587869 0.87073300 1.00000 0.00000             
O2    core 0.4274012 0.1366451 0.5920913 0.87073300 1.00000 0.00000             
O2    core 0.4274184 0.1366471 0.9254052 0.87073300 1.00000 0.00000             
O2    core 0.4274030 0.4699746 0.2587496 0.87073300 1.00000 0.00000             
O2    core 0.4274032 0.4699879 0.5920845 0.87073300 1.00000 0.00000             
O2    core 0.4274069 0.4699908 0.9254111 0.87073300 1.00000 0.00000             
O2    core 0.4274129 0.8033039 0.2587469 0.87073300 1.00000 0.00000             
O2    core 0.4273994 0.8033049 0.5920879 0.87073300 1.00000 0.00000             
O2    core 0.4274546 0.8032909 0.9253850 0.87073300 1.00000 0.00000             
O2    core 0.7607563 0.1366262 0.2587290 0.87073300 1.00000 0.00000             
O2    core 0.7607320 0.1366259 0.5920962 0.87073300 1.00000 0.00000             
O2    core 0.7607345 0.1366362 0.9254203 0.87073300 1.00000 0.00000             
O2    core 0.7607485 0.4699944 0.2587518 0.87073300 1.00000 0.00000             
O2    core 0.7607333 0.4700060 0.5920896 0.87073300 1.00000 0.00000             
O2    core 0.7607236 0.4699708 0.9254243 0.87073300 1.00000 0.00000             
O2    core 0.7607480 0.8033128 0.2587356 0.87073300 1.00000 0.00000             
O2    core 0.7607312 0.8033064 0.5920927 0.87073300 1.00000 0.00000             
O2    core 0.7607479 0.8033165 0.9254146 0.87073300 1.00000 0.00000             
O2    shel 0.1445191 0.0919148 0.0707895 -2.8707330 1.00000 0.00000             
O2    shel 0.1443205 0.0919026 0.4041037 -2.8707330 1.00000 0.00000             
O2    shel 0.1443115 0.0919038 0.7374339 -2.8707330 1.00000 0.00000             
O2    shel 0.1442959 0.4252027 0.0707653 -2.8707330 1.00000 0.00000             
O2    shel 0.1443045 0.4252253 0.4040991 -2.8707330 1.00000 0.00000             
O2    shel 0.1442806 0.4252091 0.7374411 -2.8707330 1.00000 0.00000             
O2    shel 0.1443302 0.7585556 0.0707520 -2.8707330 1.00000 0.00000             
O2    shel 0.1443231 0.7585686 0.4041304 -2.8707330 1.00000 0.00000             
O2    shel 0.1443125 0.7585648 0.7374393 -2.8707330 1.00000 0.00000             
O2    shel 0.4776397 0.0919108 0.0707680 -2.8707330 1.00000 0.00000             
O2    shel 0.4776891 0.0919265 0.4041328 -2.8707330 1.00000 0.00000             
O2    shel 0.4776483 0.0919170 0.7374384 -2.8707330 1.00000 0.00000             
O2    shel 0.4776520 0.4252538 0.0707629 -2.8707330 1.00000 0.00000             
O2    shel 0.4776399 0.4252363 0.4040978 -2.8707330 1.00000 0.00000             
O2    shel 0.4776525 0.4252578 0.7374281 -2.8707330 1.00000 0.00000             
O2    shel 0.4776358 0.7585764 0.0707725 -2.8707330 1.00000 0.00000             
O2    shel 0.4776414 0.7585709 0.4041059 -2.8707330 1.00000 0.00000             
O2    shel 0.4776473 0.7586033 0.7374450 -2.8707330 1.00000 0.00000             
O2    shel 0.8109700 0.0919135 0.0707790 -2.8707330 1.00000 0.00000             
O2    shel 0.8109715 0.0918865 0.4040932 -2.8707330 1.00000 0.00000             
O2    shel 0.8109946 0.0919211 0.7374536 -2.8707330 1.00000 0.00000             
O2    shel 0.8109704 0.4252470 0.0707745 -2.8707330 1.00000 0.00000             
O2    shel 0.8109556 0.4252087 0.4040974 -2.8707330 1.00000 0.00000             
O2    shel 0.8109636 0.4252365 0.7374341 -2.8707330 1.00000 0.00000             
O2    shel 0.8110086 0.7586121 0.0707684 -2.8707330 1.00000 0.00000             
O2    shel 0.8110303 0.7585937 0.4040674 -2.8707330 1.00000 0.00000             
O2    shel 0.8109838 0.7585814 0.7374425 -2.8707330 1.00000 0.00000             
O2    shel 0.2428807 0.0511041 0.1819041 -2.8707330 1.00000 0.00000             
O2    shel 0.2426828 0.0511076 0.5152274 -2.8707330 1.00000 0.00000             
O2    shel 0.2426900 0.0511124 0.8485468 -2.8707330 1.00000 0.00000             
O2    shel 0.2426762 0.3844332 0.1818942 -2.8707330 1.00000 0.00000             
O2    shel 0.2426778 0.3844291 0.5152158 -2.8707330 1.00000 0.00000             
O2    shel 0.2426887 0.3844456 0.8485490 -2.8707330 1.00000 0.00000             
O2    shel 0.2426827 0.7177713 0.1818949 -2.8707330 1.00000 0.00000             
O2    shel 0.2426768 0.7177485 0.5152296 -2.8707330 1.00000 0.00000             
O2    shel 0.2427088 0.7177331 0.8485148 -2.8707330 1.00000 0.00000             
O2    shel 0.5760100 0.0511147 0.1818919 -2.8707330 1.00000 0.00000             
O2    shel 0.5760094 0.0510706 0.5152375 -2.8707330 1.00000 0.00000             
O2    shel 0.5760136 0.0511059 0.8485520 -2.8707330 1.00000 0.00000             
O2    shel 0.5760553 0.3844832 0.1818717 -2.8707330 1.00000 0.00000             
O2    shel 0.5760038 0.3844795 0.5152520 -2.8707330 1.00000 0.00000             
O2    shel 0.5760119 0.3844512 0.8485487 -2.8707330 1.00000 0.00000             
O2    shel 0.5760076 0.7177727 0.1818893 -2.8707330 1.00000 0.00000             
O2    shel 0.5760066 0.7177660 0.5152245 -2.8707330 1.00000 0.00000             
O2    shel 0.5760134 0.7177886 0.8485611 -2.8707330 1.00000 0.00000             
O2    shel 0.9093419 0.0510887 0.1818910 -2.8707330 1.00000 0.00000             
O2    shel 0.9093412 0.0510953 0.5152162 -2.8707330 1.00000 0.00000             
O2    shel 0.9093539 0.0510934 0.8485776 -2.8707330 1.00000 0.00000             
O2    shel 0.9093424 0.3844376 0.1818856 -2.8707330 1.00000 0.00000             
O2    shel 0.9093168 0.3844128 0.5152190 -2.8707330 1.00000 0.00000             
O2    shel 0.9093358 0.3844390 0.8485542 -2.8707330 1.00000 0.00000             
O2    shel 0.9094081 0.7178263 0.1818608 -2.8707330 1.00000 0.00000             
O2    shel 0.9093415 0.7177791 0.5152267 -2.8707330 1.00000 0.00000             
O2    shel 0.9093573 0.7177798 0.8485621 -2.8707330 1.00000 0.00000             
O2    shel 0.2835170 0.1902884 0.2930013 -2.8707330 1.00000 0.00000             
O2    shel 0.2834866 0.1902995 0.6263190 -2.8707330 1.00000 0.00000             
O2    shel 0.2835349 0.1903355 0.9596219 -2.8707330 1.00000 0.00000             
O2    shel 0.2834867 0.5236231 0.2929921 -2.8707330 1.00000 0.00000             
O2    shel 0.2834588 0.5235957 0.6263235 -2.8707330 1.00000 0.00000             
O2    shel 0.2834751 0.5236117 0.9596599 -2.8707330 1.00000 0.00000             
O2    shel 0.2835060 0.8569511 0.2930112 -2.8707330 1.00000 0.00000             
O2    shel 0.2834790 0.8569475 0.6263206 -2.8707330 1.00000 0.00000             
O2    shel 0.2835170 0.8568818 0.9596234 -2.8707330 1.00000 0.00000             
O2    shel 0.6168951 0.1903100 0.2930303 -2.8707330 1.00000 0.00000             
O2    shel 0.6168210 0.1902845 0.6263221 -2.8707330 1.00000 0.00000             
O2    shel 0.6168263 0.1902912 0.9596605 -2.8707330 1.00000 0.00000             
O2    shel 0.6168281 0.5236399 0.2929920 -2.8707330 1.00000 0.00000             
O2    shel 0.6168357 0.5236836 0.6263297 -2.8707330 1.00000 0.00000             
O2    shel 0.6168219 0.5236384 0.9596545 -2.8707330 1.00000 0.00000             
O2    shel 0.6168282 0.8569563 0.2929938 -2.8707330 1.00000 0.00000             
O2    shel 0.6168229 0.8569643 0.6263175 -2.8707330 1.00000 0.00000             
O2    shel 0.6168432 0.8569693 0.9596783 -2.8707330 1.00000 0.00000             
O2    shel 0.9501647 0.1902752 0.2929946 -2.8707330 1.00000 0.00000             
O2    shel 0.9501526 0.1902873 0.6263235 -2.8707330 1.00000 0.00000             
O2    shel 0.9501555 0.1902864 0.9596751 -2.8707330 1.00000 0.00000             
O2    shel 0.9501540 0.5236069 0.2930024 -2.8707330 1.00000 0.00000             
O2    shel 0.9501410 0.5236084 0.6263251 -2.8707330 1.00000 0.00000             
O2    shel 0.9501457 0.5236245 0.9596602 -2.8707330 1.00000 0.00000             
O2    shel 0.9502074 0.8570245 0.2929308 -2.8707330 1.00000 0.00000             
O2    shel 0.9501539 0.8569697 0.6263271 -2.8707330 1.00000 0.00000             
O2    shel 0.9501737 0.8569761 0.9596523 -2.8707330 1.00000 0.00000             
O2    shel 0.0523894 0.2413675 0.1514446 -2.8707330 1.00000 0.00000             
O2    shel 0.0523826 0.2413866 0.4847727 -2.8707330 1.00000 0.00000             
O2    shel 0.0524092 0.2413724 0.8181432 -2.8707330 1.00000 0.00000             
O2    shel 0.0523858 0.5747307 0.1514527 -2.8707330 1.00000 0.00000             
O2    shel 0.0523751 0.5747082 0.4847821 -2.8707330 1.00000 0.00000             
O2    shel 0.0523815 0.5747297 0.8181169 -2.8707330 1.00000 0.00000             
O2    shel 0.0526000 0.9080852 0.1514248 -2.8707330 1.00000 0.00000             
O2    shel 0.0523898 0.9080646 0.4847799 -2.8707330 1.00000 0.00000             
O2    shel 0.0523965 0.9080658 0.8181084 -2.8707330 1.00000 0.00000             
O2    shel 0.3857735 0.2414357 0.1514679 -2.8707330 1.00000 0.00000             
O2    shel 0.3857315 0.2414014 0.4847762 -2.8707330 1.00000 0.00000             
O2    shel 0.3857374 0.2413948 0.8180750 -2.8707330 1.00000 0.00000             
O2    shel 0.3857143 0.5747294 0.1514438 -2.8707330 1.00000 0.00000             
O2    shel 0.3857080 0.5747309 0.4847798 -2.8707330 1.00000 0.00000             
O2    shel 0.3857142 0.5747548 0.8181170 -2.8707330 1.00000 0.00000             
O2    shel 0.3857184 0.9080679 0.1514514 -2.8707330 1.00000 0.00000             
O2    shel 0.3857130 0.9080516 0.4847754 -2.8707330 1.00000 0.00000             
O2    shel 0.3857390 0.9080416 0.8180813 -2.8707330 1.00000 0.00000             
O2    shel 0.7190506 0.2414009 0.1514472 -2.8707330 1.00000 0.00000             
O2    shel 0.7190354 0.2413602 0.4847692 -2.8707330 1.00000 0.00000             
O2    shel 0.7190489 0.2413943 0.8181078 -2.8707330 1.00000 0.00000             
O2    shel 0.7190921 0.5747874 0.1514586 -2.8707330 1.00000 0.00000             
O2    shel 0.7190552 0.5747599 0.4847727 -2.8707330 1.00000 0.00000             
O2    shel 0.7190613 0.5747404 0.8181120 -2.8707330 1.00000 0.00000             
O2    shel 0.7190472 0.9080657 0.1514398 -2.8707330 1.00000 0.00000             
O2    shel 0.7190569 0.9080471 0.4847648 -2.8707330 1.00000 0.00000             
O2    shel 0.7190578 0.9080792 0.8181219 -2.8707330 1.00000 0.00000             
O2    shel 0.1915867 0.2821763 0.0403609 -2.8707330 1.00000 0.00000             
O2    shel 0.1915789 0.2821968 0.3736711 -2.8707330 1.00000 0.00000             
O2    shel 0.1915631 0.2821982 0.7070071 -2.8707330 1.00000 0.00000             
O2    shel 0.1915686 0.6155104 0.0403550 -2.8707330 1.00000 0.00000             
O2    shel 0.1915630 0.6155236 0.3736786 -2.8707330 1.00000 0.00000             
O2    shel 0.1915284 0.6155003 0.7069841 -2.8707330 1.00000 0.00000             
O2    shel 0.1917819 0.9488946 0.0403225 -2.8707330 1.00000 0.00000             
O2    shel 0.1915862 0.9488660 0.3736878 -2.8707330 1.00000 0.00000             
O2    shel 0.1915773 0.9488691 0.7070070 -2.8707330 1.00000 0.00000             
O2    shel 0.5249158 0.2822153 0.0403342 -2.8707330 1.00000 0.00000             
O2    shel 0.5249868 0.2822459 0.3737216 -2.8707330 1.00000 0.00000             
O2    shel 0.5249339 0.2822289 0.7069961 -2.8707330 1.00000 0.00000             
O2    shel 0.5249030 0.6155491 0.0403395 -2.8707330 1.00000 0.00000             
O2    shel 0.5248988 0.6155355 0.3736781 -2.8707330 1.00000 0.00000             
O2    shel 0.5248918 0.6155597 0.7070120 -2.8707330 1.00000 0.00000             
O2    shel 0.5248936 0.9488687 0.0403385 -2.8707330 1.00000 0.00000             
O2    shel 0.5249081 0.9488662 0.3736762 -2.8707330 1.00000 0.00000             