# 
# Keywords:
# 
opti conp qok rfo 
# 
# Options:
# 
# File written after   53 cycles
cell
  14.956396  14.955013  16.973460  89.996633  89.994380 120.003588
fractional  1   
Ge    core 0.1560699 0.0000000 0.1111100 4.00000000 1.00000 0.00000             
Ge    core 0.1539310 0.9987440 0.4444480 4.00000000 1.00000 0.00000             
Ge    core 0.1539981 0.9990778 0.7777329 4.00000000 1.00000 0.00000             
Ge    core 0.1540613 0.3323990 0.1110940 4.00000000 1.00000 0.00000             
Ge    core 0.1537244 0.3319617 0.4444073 4.00000000 1.00000 0.00000             
Ge    core 0.1537863 0.3322608 0.7777564 4.00000000 1.00000 0.00000             
Ge    core 0.1540710 0.6658328 0.1111415 4.00000000 1.00000 0.00000             
Ge    core 0.1537111 0.6652489 0.4444164 4.00000000 1.00000 0.00000             
Ge    core 0.1537890 0.6655461 0.7777183 4.00000000 1.00000 0.00000             
Ge    core 0.4874285 0.9991772 0.1111444 4.00000000 1.00000 0.00000             
Ge    core 0.4871785 0.9985118 0.4445123 4.00000000 1.00000 0.00000             
Ge    core 0.4872525 0.9990069 0.7777310 4.00000000 1.00000 0.00000             
Ge    core 0.4877712 0.3328046 0.1110184 4.00000000 1.00000 0.00000             
Ge    core 0.4872343 0.3321567 0.4445014 4.00000000 1.00000 0.00000             
Ge    core 0.4872781 0.3324322 0.7776722 4.00000000 1.00000 0.00000             
Ge    core 0.4873366 0.6658509 0.1111279 4.00000000 1.00000 0.00000             
Ge    core 0.4870963 0.6653479 0.4444387 4.00000000 1.00000 0.00000             
Ge    core 0.4871950 0.6657609 0.7778346 4.00000000 1.00000 0.00000             
Ge    core 0.8207619 0.9991745 0.1111098 4.00000000 1.00000 0.00000             
Ge    core 0.8204982 0.9984891 0.4442896 4.00000000 1.00000 0.00000             
Ge    core 0.8205986 0.9990248 0.7778367 4.00000000 1.00000 0.00000             
Ge    core 0.8206653 0.3324965 0.1110830 4.00000000 1.00000 0.00000             
Ge    core 0.8204282 0.3317941 0.4443254 4.00000000 1.00000 0.00000             
Ge    core 0.8204924 0.3322664 0.7777353 4.00000000 1.00000 0.00000             
Ge    core 0.8211180 0.6662427 0.1111032 4.00000000 1.00000 0.00000             
Ge    core 0.8205420 0.6654264 0.4444058 4.00000000 1.00000 0.00000             
Ge    core 0.8206321 0.6657409 0.7777876 4.00000000 1.00000 0.00000             
Ge    core 0.0048342 0.1482972 0.2221932 4.00000000 1.00000 0.00000             
Ge    core 0.0041414 0.1481029 0.5555110 4.00000000 1.00000 0.00000             
Ge    core 0.0044413 0.1484176 0.8890013 4.00000000 1.00000 0.00000             
Ge    core 0.0046630 0.4817830 0.2221887 4.00000000 1.00000 0.00000             
Ge    core 0.0040815 0.4814213 0.5555239 4.00000000 1.00000 0.00000             
Ge    core 0.0042836 0.4816939 0.8889061 4.00000000 1.00000 0.00000             
Ge    core 0.0055185 0.8158810 0.2218288 4.00000000 1.00000 0.00000             
Ge    core 0.0042569 0.8149582 0.5555530 4.00000000 1.00000 0.00000             
Ge    core 0.0045633 0.8151761 0.8888374 4.00000000 1.00000 0.00000             
Ge    core 0.3390377 0.1492025 0.2225602 4.00000000 1.00000 0.00000             
Ge    core 0.3376407 0.1482945 0.5555811 4.00000000 1.00000 0.00000             
Ge    core 0.3379489 0.1485130 0.8887758 4.00000000 1.00000 0.00000             
Ge    core 0.3379865 0.4817978 0.2221964 4.00000000 1.00000 0.00000             
Ge    core 0.3374778 0.4815418 0.5555347 4.00000000 1.00000 0.00000             
Ge    core 0.3376248 0.4818098 0.8888677 4.00000000 1.00000 0.00000             
Ge    core 0.3380642 0.8151550 0.2222293 4.00000000 1.00000 0.00000             
Ge    core 0.3374507 0.8147364 0.5555751 4.00000000 1.00000 0.00000             
Ge    core 0.3378758 0.8149074 0.8887038 4.00000000 1.00000 0.00000             
Ge    core 0.6714960 0.1484648 0.2222119 4.00000000 1.00000 0.00000             
Ge    core 0.6708796 0.1480993 0.5555661 4.00000000 1.00000 0.00000             
Ge    core 0.6710748 0.1483739 0.8888719 4.00000000 1.00000 0.00000             
Ge    core 0.6716367 0.4821977 0.2221940 4.00000000 1.00000 0.00000             
Ge    core 0.6709361 0.4817566 0.5556182 4.00000000 1.00000 0.00000             
Ge    core 0.6710595 0.4818324 0.8888672 4.00000000 1.00000 0.00000             
Ge    core 0.6714065 0.8151388 0.2221831 4.00000000 1.00000 0.00000             
Ge    core 0.6708745 0.8148818 0.5555523 4.00000000 1.00000 0.00000             
Ge    core 0.6711043 0.8151543 0.8889371 4.00000000 1.00000 0.00000             
Ge    core 0.1886442 0.1827882 0.3333494 4.00000000 1.00000 0.00000             
Ge    core 0.1881555 0.1828383 0.6665818 4.00000000 1.00000 0.00000             
Ge    core 0.1886728 0.1831822 0.9999201 4.00000000 1.00000 0.00000             
Ge    core 0.1883600 0.5159362 0.3333078 4.00000000 1.00000 0.00000             
Ge    core 0.1880107 0.5160103 0.6665873 4.00000000 1.00000 0.00000             
Ge    core 0.1881485 0.5161559 0.0000179 4.00000000 1.00000 0.00000             
Ge    core 0.1886459 0.8494057 0.3334226 4.00000000 1.00000 0.00000             
Ge    core 0.1881633 0.8494547 2/3       4.00000000 1.00000 0.00000             
Ge    core 0.1886841 0.8496289 0.9998934 4.00000000 1.00000 0.00000             
Ge    core 0.5225187 0.1829650 0.3337341 4.00000000 1.00000 0.00000             
Ge    core 0.5216074 0.1828853 0.6666558 4.00000000 1.00000 0.00000             
Ge    core 0.5217489 0.1829765 0.9999842 4.00000000 1.00000 0.00000             
Ge    core 0.5217973 0.5160829 0.3332945 4.00000000 1.00000 0.00000             
Ge    core 0.5214876 0.5162974 0.6666143 4.00000000 1.00000 0.00000             
Ge    core 0.5216387 0.5164504 0.9998722 4.00000000 1.00000 0.00000             
Ge    core 0.5218052 0.8493045 0.3332974 4.00000000 1.00000 0.00000             
Ge    core 0.5214952 0.8495055 0.6666141 4.00000000 1.00000 0.00000             
Ge    core 0.5216496 0.8496223 0.9999748 4.00000000 1.00000 0.00000             
Ge    core 0.8551982 0.1825195 0.3332574 4.00000000 1.00000 0.00000             
Ge    core 0.8548442 0.1827677 0.6666545 4.00000000 1.00000 0.00000             
Ge    core 0.8549427 0.1829300 0.9999987 4.00000000 1.00000 0.00000             
Ge    core 0.8551937 0.5159888 0.3334004 4.00000000 1.00000 0.00000             
Ge    core 0.8548420 0.5161612 2/3       4.00000000 1.00000 0.00000             
Ge    core 0.8549382 0.5163441 0.9999954 4.00000000 1.00000 0.00000             
Ge    core 0.8554221 0.8493997 0.3330622 4.00000000 1.00000 0.00000             
Ge    core 0.8548688 0.8495447 0.6666345 4.00000000 1.00000 0.00000             
Ge    core 0.8552587 0.8499394 0.9998621 4.00000000 1.00000 0.00000             
O1    core 0.1411682 0.1010071 0.0801556 1.73395700 1.00000 0.00000             
O1    core 0.1399987 0.1002571 0.4133326 1.73395700 1.00000 0.00000             
O1    core 0.1398022 0.1004443 0.7466993 1.73395700 1.00000 0.00000             
O1    core 0.1397444 0.4337311 0.0801111 1.73395700 1.00000 0.00000             
O1    core 0.1397044 0.4334296 0.4133140 1.73395700 1.00000 0.00000             
O1    core 0.1396151 0.4336554 0.7467214 1.73395700 1.00000 0.00000             
O1    core 0.1400616 0.7673100 0.0800340 1.73395700 1.00000 0.00000             
O1    core 0.1398604 0.7668403 0.4133931 1.73395700 1.00000 0.00000             
O1    core 0.1397192 0.7670319 0.7467644 1.73395700 1.00000 0.00000             
O1    core 0.4732983 0.1005962 0.0800939 1.73395700 1.00000 0.00000             
O1    core 0.4735100 0.1002695 0.4135663 1.73395700 1.00000 0.00000             
O1    core 0.4731511 0.1004595 0.7467509 1.73395700 1.00000 0.00000             
O1    core 0.4733276 0.4340053 0.0799748 1.73395700 1.00000 0.00000             
O1    core 0.4731297 0.4335113 0.4132708 1.73395700 1.00000 0.00000             
O1    core 0.4730710 0.4338018 0.7466682 1.73395700 1.00000 0.00000             
O1    core 0.4731354 0.7672191 0.0800773 1.73395700 1.00000 0.00000             
O1    core 0.4731329 0.7668436 0.4133330 1.73395700 1.00000 0.00000             
O1    core 0.4731031 0.7671984 0.7467854 1.73395700 1.00000 0.00000             
O1    core 0.8065557 0.1005731 0.0801341 1.73395700 1.00000 0.00000             
O1    core 0.8065045 0.1000014 0.4132392 1.73395700 1.00000 0.00000             
O1    core 0.8064656 0.1004421 0.7467995 1.73395700 1.00000 0.00000             
O1    core 0.8064827 0.4338907 0.0800772 1.73395700 1.00000 0.00000             
O1    core 0.8063707 0.4332556 0.4132546 1.73395700 1.00000 0.00000             
O1    core 0.8063521 0.4336853 0.7467247 1.73395700 1.00000 0.00000             
O1    core 0.8070095 0.7676623 0.0800517 1.73395700 1.00000 0.00000             
O1    core 0.8068176 0.7669897 0.4131451 1.73395700 1.00000 0.00000             
O1    core 0.8065133 0.7671567 0.7467488 1.73395700 1.00000 0.00000             
O1    core 0.2378817 0.0334747 0.1913147 1.73395700 1.00000 0.00000             
O1    core 0.2362440 0.0327185 0.5245835 1.73395700 1.00000 0.00000             
O1    core 0.2364258 0.0330004 0.8577860 1.73395700 1.00000 0.00000             
O1    core 0.2365507 0.3662997 0.1910937 1.73395700 1.00000 0.00000             
O1    core 0.2361255 0.3659612 0.5245016 1.73395700 1.00000 0.00000             
O1    core 0.2363021 0.3662443 0.8577616 1.73395700 1.00000 0.00000             
O1    core 0.2365878 0.6996839 0.1911144 1.73395700 1.00000 0.00000             
O1    core 0.2361017 0.6991831 0.5245189 1.73395700 1.00000 0.00000             
O1    core 0.2364032 0.6994170 0.8576572 1.73395700 1.00000 0.00000             
O1    core 0.5699151 0.0330426 0.1911600 1.73395700 1.00000 0.00000             
O1    core 0.5695421 0.0324487 0.5246234 1.73395700 1.00000 0.00000             
O1    core 0.5696587 0.0328510 0.8577930 1.73395700 1.00000 0.00000             
O1    core 0.5702198 0.3667392 0.1910301 1.73395700 1.00000 0.00000             
O1    core 0.5694686 0.3661972 0.5246825 1.73395700 1.00000 0.00000             
O1    core 0.5696378 0.3663359 0.8577681 1.73395700 1.00000 0.00000             
O1    core 0.5698622 0.6996861 0.1910937 1.73395700 1.00000 0.00000             
O1    core 0.5694753 0.6993015 0.5245389 1.73395700 1.00000 0.00000             
O1    core 0.5697082 0.6996130 0.8578255 1.73395700 1.00000 0.00000             
O1    core 0.9032823 0.0328708 0.1910913 1.73395700 1.00000 0.00000             
O1    core 0.9028493 0.0325177 0.5244380 1.73395700 1.00000 0.00000             
O1    core 0.9030549 0.0328799 0.8578731 1.73395700 1.00000 0.00000             
O1    core 0.9031808 0.3663400 0.1910654 1.73395700 1.00000 0.00000             
O1    core 0.9027225 0.3658569 0.5244938 1.73395700 1.00000 0.00000             
O1    core 0.9028978 0.3661758 0.8578019 1.73395700 1.00000 0.00000             
O1    core 0.9038584 0.7003552 0.1908918 1.73395700 1.00000 0.00000             
O1    core 0.9028369 0.6994064 0.5245634 1.73395700 1.00000 0.00000             
O1    core 0.9031280 0.6996406 0.8578043 1.73395700 1.00000 0.00000             
O1    core 0.3044284 0.1972760 0.3024715 1.73395700 1.00000 0.00000             
O1    core 0.3036899 0.1969625 0.6355095 1.73395700 1.00000 0.00000             
O1    core 0.3041657 0.1973438 0.9686960 1.73395700 1.00000 0.00000             
O1    core 0.3039449 0.5301587 0.3022905 1.73395700 1.00000 0.00000             
O1    core 0.3035292 0.5301021 0.6355275 1.73395700 1.00000 0.00000             
O1    core 0.3036647 0.5302609 0.9689228 1.73395700 1.00000 0.00000             
O1    core 0.3041977 0.8634884 0.3024395 1.73395700 1.00000 0.00000             
O1    core 0.3036039 0.8633799 0.6355665 1.73395700 1.00000 0.00000             
O1    core 0.3040213 0.8633469 0.9688286 1.73395700 1.00000 0.00000             
O1    core 0.6379206 0.1969630 0.3025396 1.73395700 1.00000 0.00000             
O1    core 0.6370478 0.1968387 0.6355202 1.73395700 1.00000 0.00000             
O1    core 0.6372184 0.1969520 0.9689218 1.73395700 1.00000 0.00000             
O1    core 0.6374242 0.5303986 0.3023017 1.73395700 1.00000 0.00000             
O1    core 0.6370369 0.5304352 0.6355683 1.73395700 1.00000 0.00000             
O1    core 0.6371234 0.5304314 0.9688529 1.73395700 1.00000 0.00000             
O1    core 0.6373856 0.8635308 0.3022765 1.73395700 1.00000 0.00000             
O1    core 0.6369769 0.8635342 0.6355131 1.73395700 1.00000 0.00000             
O1    core 0.6371821 0.8636821 0.9689733 1.73395700 1.00000 0.00000             
O1    core 0.9707893 0.1967534 0.3022367 1.73395700 1.00000 0.00000             
O1    core 0.9702926 0.1967390 0.6355220 1.73395700 1.00000 0.00000             
O1    core 0.9704727 0.1970290 0.9689493 1.73395700 1.00000 0.00000             
O1    core 0.9707191 0.5300861 0.3023786 1.73395700 1.00000 0.00000             
O1    core 0.9702634 0.5300664 0.6355467 1.73395700 1.00000 0.00000             
O1    core 0.9703951 0.5302721 0.9689273 1.73395700 1.00000 0.00000             
O1    core 0.9710762 0.8640329 0.3019145 1.73395700 1.00000 0.00000             
O1    core 0.9703693 0.8636400 0.6355100 1.73395700 1.00000 0.00000             
O1    core 0.9706886 0.8638878 0.9687563 1.73395700 1.00000 0.00000             
O1    core 0.0386776 0.2307406 0.1421356 1.73395700 1.00000 0.00000             
O1    core 0.0381693 0.2305488 0.4754211 1.73395700 1.00000 0.00000             
O1    core 0.0383485 0.2307807 0.8088777 1.73395700 1.00000 0.00000             
O1    core 0.0385564 0.5644042 0.1422497 1.73395700 1.00000 0.00000             
O1    core 0.0381125 0.5638911 0.4754481 1.73395700 1.00000 0.00000             
O1    core 0.0382697 0.5641776 0.8088558 1.73395700 1.00000 0.00000             
O1    core 0.0401760 0.8984593 0.1419949 1.73395700 1.00000 0.00000             
O1    core 0.0383369 0.8973400 0.4754218 1.73395700 1.00000 0.00000             
O1    core 0.0385047 0.8975418 0.8087330 1.73395700 1.00000 0.00000             
O1    core 0.3724300 0.2313028 0.1423509 1.73395700 1.00000 0.00000             
O1    core 0.3716804 0.2306694 0.4754483 1.73395700 1.00000 0.00000             
O1    core 0.3718159 0.2308250 0.8086391 1.73395700 1.00000 0.00000             
O1    core 0.3718679 0.5643309 0.1422034 1.73395700 1.00000 0.00000             
O1    core 0.3715000 0.5639748 0.4754459 1.73395700 1.00000 0.00000             
O1    core 0.3716329 0.5643397 0.8088590 1.73395700 1.00000 0.00000             
O1    core 0.3719362 0.8977262 0.1422594 1.73395700 1.00000 0.00000             
O1    core 0.3715340 0.8972244 0.4754941 1.73395700 1.00000 0.00000             
O1    core 0.3717414 0.8974699 0.8087267 1.73395700 1.00000 0.00000             
O1    core 0.7052121 0.2310069 0.1422443 1.73395700 1.00000 0.00000             
O1    core 0.7048385 0.2304207 0.4753869 1.73395700 1.00000 0.00000             
O1    core 0.7049830 0.2307892 0.8087886 1.73395700 1.00000 0.00000             
O1    core 0.7056217 0.5648336 0.1422820 1.73395700 1.00000 0.00000             
O1    core 0.7049374 0.5641015 0.4754657 1.73395700 1.00000 0.00000             
O1    core 0.7050960 0.5642959 0.8088126 1.73395700 1.00000 0.00000             
O1    core 0.7052842 0.8976890 0.1421970 1.73395700 1.00000 0.00000             
O1    core 0.7049076 0.8971859 0.4753863 1.73395700 1.00000 0.00000             
O1    core 0.7050553 0.8975977 0.8088718 1.73395700 1.00000 0.00000             
O1    core 0.2025377 0.2986428 0.0308990 1.73395700 1.00000 0.00000             
O1    core 0.2024524 0.2981961 0.3644039 1.73395700 1.00000 0.00000             
O1    core 0.2022527 0.2983596 0.6976503 1.73395700 1.00000 0.00000             
O1    core 0.2023444 0.6317299 0.0310262 1.73395700 1.00000 0.00000             
O1    core 0.2023354 0.6314039 0.3644042 1.73395700 1.00000 0.00000             
O1    core 0.2021297 0.6315659 0.6975889 1.73395700 1.00000 0.00000             
O1    core 0.2038918 0.9656569 0.0309248 1.73395700 1.00000 0.00000             
O1    core 0.2026616 0.9649029 0.3645026 1.73395700 1.00000 0.00000             
O1    core 0.2024732 0.9650780 0.6976864 1.73395700 1.00000 0.00000             
O1    core 0.5360328 0.2986232 0.0309481 1.73395700 1.00000 0.00000             
O1    core 0.5362595 0.2983779 0.3646858 1.73395700 1.00000 0.00000             
O1    core 0.5358603 0.2984931 0.6976596 1.73395700 1.00000 0.00000             
O1    core 0.5357497 0.6319530 0.0309645 1.73395700 1.00000 0.00000             
O1    core 0.5357339 0.6315206 0.3644161 1.73395700 1.00000 0.00000             
O1    core 0.5355850 0.6317998 0.6977042 1.73395700 1.00000 0.00000             
O1    core 0.5357961 0.9651714 0.0310222 1.73395700 1.00000 0.00000             
O1    core 0.5357914 0.9647689 0.3644419 1.73395700 1.00000 0.00000             
O1    core 0.5357103 0.9650968 0.6976248 1.73395700 1.00000 0.00000             
O1    core 0.8690505 0.2984903 0.0309839 1.73395700 1.00000 0.00000             
O1    core 0.8692118 0.2980034 0.3643965 1.73395700 1.00000 0.00000             
O1    core 0.8690128 0.2983385 0.6976807 1.73395700 1.00000 0.00000             
O1    core 0.8692206 0.6319602 0.0309565 1.73395700 1.00000 0.00000             
O1    core 0.8692070 0.6314460 0.3645102 1.73395700 1.00000 0.00000             
O1    core 0.8690927 0.6317424 0.6977303 1.73395700 1.00000 0.00000             
O1    core 0.8692123 0.9654156 0.0308917 1.73395700 1.00000 0.00000             
O1    core 0.8691856 0.9647855 0.3642568 1.73395700 1.00000 0.00000             
O1    core 0.8690055 0.9650781 0.6977082 1.73395700 1.00000 0.00000             
O1    core 0.1062922 0.1342673 0.2532599 1.73395700 1.00000 0.00000             
O1    core 0.1056534 0.1341609 0.5866022 1.73395700 1.00000 0.00000             
O1    core 0.1058308 0.1343012 0.9201275 1.73395700 1.00000 0.00000             
O1    core 0.1060318 0.4675632 0.2531764 1.73395700 1.00000 0.00000             
O1    core 0.1055324 0.4673690 0.5865883 1.73395700 1.00000 0.00000             
O1    core 0.1056798 0.4675795 0.9200010 1.73395700 1.00000 0.00000             
O1    core 0.1064492 0.8011507 0.2532522 1.73395700 1.00000 0.00000             
O1    core 0.1056643 0.8008800 0.5866778 1.73395700 1.00000 0.00000             
O1    core 0.1060372 0.8011959 0.9199944 1.73395700 1.00000 0.00000             
O1    core 0.4402538 0.1348665 0.2535197 1.73395700 1.00000 0.00000             
O1    core 0.4390702 0.1342594 0.5866910 1.73395700 1.00000 0.00000             
O1    core 0.4393133 0.1343984 0.9199424 1.73395700 1.00000 0.00000             
O1    core 0.4393952 0.4676582 0.2532136 1.73395700 1.00000 0.00000             
O1    core 0.4390056 0.4676349 0.5866134 1.73395700 1.00000 0.00000             
O1    core 0.4391160 0.4678075 0.9199093 1.73395700 1.00000 0.00000             
O1    core 0.4394516 0.8009314 0.2531849 1.73395700 1.00000 0.00000             
O1    core 0.4389534 0.8007778 0.5866517 1.73395700 1.00000 0.00000             
O1    core 0.4393539 0.8009576 0.9198464 1.73395700 1.00000 0.00000             
O1    core 0.7728613 0.1341934 0.2531161 1.73395700 1.00000 0.00000             
O1    core 0.7723671 0.1341428 0.5866560 1.73395700 1.00000 0.00000             
O1    core 0.7724764 0.1342768 0.9199836 1.73395700 1.00000 0.00000             
O1    core 0.7729201 0.4678824 0.2532144 1.73395700 1.00000 0.00000             
O1    core 0.7723512 0.4676673 0.5866677 1.73395700 1.00000 0.00000             
O1    core 0.7724420 0.4677263 0.9199969 1.73395700 1.00000 0.00000             
O1    core 0.7727567 0.8008748 0.2531234 1.73395700 1.00000 0.00000             
O1    core 0.7723311 0.8008720 0.5866606 1.73395700 1.00000 0.00000             
O1    core 0.7725768 0.8011269 0.9199729 1.73395700 1.00000 0.00000             
O1    shel 0.1455548 0.0994229 0.0768577 -3.7339570 1.00000 0.00000             
O1    shel 0.1443921 0.0986482 0.4100725 -3.7339570 1.00000 0.00000             
O1    shel 0.1441895 0.0988239 0.7434340 -3.7339570 1.00000 0.00000             
O1    shel 0.1441416 0.4321214 0.0768417 -3.7339570 1.00000 0.00000             
O1    shel 0.1441028 0.4318203 0.4100535 -3.7339570 1.00000 0.00000             
O1    shel 0.1440024 0.4320348 0.7434537 -3.7339570 1.00000 0.00000             
O1    shel 0.1444515 0.7656850 0.0767717 -3.7339570 1.00000 0.00000             
O1    shel 0.1442551 0.7652235 0.4101322 -3.7339570 1.00000 0.00000             
O1    shel 0.1441023 0.7654091 0.7434943 -3.7339570 1.00000 0.00000             
O1    shel 0.4776868 0.0989786 0.0768272 -3.7339570 1.00000 0.00000             
O1    shel 0.4779121 0.0986685 0.4102954 -3.7339570 1.00000 0.00000             
O1    shel 0.4775365 0.0988367 0.7434837 -3.7339570 1.00000 0.00000             
O1    shel 0.4777285 0.4323939 0.0767145 -3.7339570 1.00000 0.00000             
O1    shel 0.4775361 0.4319094 0.4100246 -3.7339570 1.00000 0.00000             
O1    shel 0.4774635 0.4321880 0.7434048 -3.7339570 1.00000 0.00000             
O1    shel 0.4775319 0.7656015 0.0768138 -3.7339570 1.00000 0.00000             
O1    shel 0.4775276 0.7652278 0.4100730 -3.7339570 1.00000 0.00000             
O1    shel 0.4774814 0.7655694 0.7435193 -3.7339570 1.00000 0.00000             
O1    shel 0.8109433 0.0989526 0.0768623 -3.7339570 1.00000 0.00000             
O1    shel 0.8109052 0.0983966 0.4099732 -3.7339570 1.00000 0.00000             
O1    shel 0.8108494 0.0988195 0.7435298 -3.7339570 1.00000 0.00000             
O1    shel 0.8108737 0.4322737 0.0768130 -3.7339570 1.00000 0.00000             
O1    shel 0.8107861 0.4316673 0.4099990 -3.7339570 1.00000 0.00000             
O1    shel 0.8107448 0.4320712 0.7434598 -3.7339570 1.00000 0.00000             
O1    shel 0.8113822 0.7660323 0.0767820 -3.7339570 1.00000 0.00000             
O1    shel 0.8111907 0.7653555 0.4098969 -3.7339570 1.00000 0.00000             
O1    shel 0.8108958 0.7655347 0.7434821 -3.7339570 1.00000 0.00000             
O1    shel 0.2394518 0.0394837 0.1880022 -3.7339570 1.00000 0.00000             
O1    shel 0.2378684 0.0387266 0.5213121 -3.7339570 1.00000 0.00000             
O1    shel 0.2380477 0.0390049 0.8545174 -3.7339570 1.00000 0.00000             
O1    shel 0.2381598 0.3723051 0.1878343 -3.7339570 1.00000 0.00000             
O1    shel 0.2377439 0.3719697 0.5212389 -3.7339570 1.00000 0.00000             
O1    shel 0.2379054 0.3722497 0.8545066 -3.7339570 1.00000 0.00000             
O1    shel 0.2381955 0.7056892 0.1878561 -3.7339570 1.00000 0.00000             
O1    shel 0.2377249 0.7051982 0.5212595 -3.7339570 1.00000 0.00000             
O1    shel 0.2380141 0.7054286 0.8544039 -3.7339570 1.00000 0.00000             
O1    shel 0.5715405 0.0390486 0.1878999 -3.7339570 1.00000 0.00000             
O1    shel 0.5711600 0.0384639 0.5213526 -3.7339570 1.00000 0.00000             
O1    shel 0.5712752 0.0388622 0.8545313 -3.7339570 1.00000 0.00000             
O1    shel 0.5718289 0.3727427 0.1877715 -3.7339570 1.00000 0.00000             
O1    shel 0.5711035 0.3722004 0.5214020 -3.7339570 1.00000 0.00000             
O1    shel 0.5712600 0.3723441 0.8545059 -3.7339570 1.00000 0.00000             
O1    shel 0.5714715 0.7056879 0.1878333 -3.7339570 1.00000 0.00000             
O1    shel 0.5710942 0.7053082 0.5212725 -3.7339570 1.00000 0.00000             
O1    shel 0.5713106 0.7056192 0.8545692 -3.7339570 1.00000 0.00000             
O1    shel 0.9049002 0.0388838 0.1878377 -3.7339570 1.00000 0.00000             
O1    shel 0.9044730 0.0385282 0.5211800 -3.7339570 1.00000 0.00000             
O1    shel 0.9046626 0.0388859 0.8546177 -3.7339570 1.00000 0.00000             
O1    shel 0.9047942 0.3723486 0.1878098 -3.7339570 1.00000 0.00000             
O1    shel 0.9043519 0.3718632 0.5212269 -3.7339570 1.00000 0.00000             
O1    shel 0.9045139 0.3721843 0.8545417 -3.7339570 1.00000 0.00000             
O1    shel 0.9054374 0.7063282 0.1876149 -3.7339570 1.00000 0.00000             
O1    shel 0.9044690 0.7054159 0.5212931 -3.7339570 1.00000 0.00000             
O1    shel 0.9047425 0.7056507 0.8545442 -3.7339570 1.00000 0.00000             
O1    shel 0.2984679 0.1928839 0.2991923 -3.7339570 1.00000 0.00000             
O1    shel 0.2976871 0.1925559 0.6322517 -3.7339570 1.00000 0.00000             
O1    shel 0.2981544 0.1929230 0.9654518 -3.7339570 1.00000 0.00000             
O1    shel 0.2979411 0.5257702 0.2990232 -3.7339570 1.00000 0.00000             
O1    shel 0.2975241 0.5257038 0.6322638 -3.7339570 1.00000 0.00000             
O1    shel 0.2976630 0.5258696 0.9656569 -3.7339570 1.00000 0.00000             
O1    shel 0.2981890 0.8591140 0.2991625 -3.7339570 1.00000 0.00000             
O1    shel 0.2976004 0.8589875 0.6323047 -3.7339570 1.00000 0.00000             
O1    shel 0.2980137 0.8589823 0.9655593 -3.7339570 1.00000 0.00000             
O1    shel 0.6318859 0.1925913 0.2992872 -3.7339570 1.00000 0.00000             
O1    shel 0.6310425 0.1924398 0.6322669 -3.7339570 1.00000 0.00000             
O1    shel 0.6312103 0.1925640 0.9656588 -3.7339570 1.00000 0.00000             
O1    shel 0.6314273 0.5260150 0.2990341 -3.7339570 1.00000 0.00000             
O1    shel 0.6310297 0.5260264 0.6323073 -3.7339570 1.00000 0.00000             
O1    shel 0.6311173 0.5260392 0.9655898 -3.7339570 1.00000 0.00000             
O1    shel 0.6313787 0.8591410 0.2990114 -3.7339570 1.00000 0.00000             
O1    shel 0.6309725 0.8591338 0.6322535 -3.7339570 1.00000 0.00000             
O1    shel 0.6311763 0.8592904 0.9657038 -3.7339570 1.00000 0.00000             
O1    shel 0.9647858 0.1923595 0.2989762 -3.7339570 1.00000 0.00000             
O1    shel 0.9642875 0.1923469 0.6322652 -3.7339570 1.00000 0.00000             
O1    shel 0.9644700 0.1926271 0.9656875 -3.7339570 1.00000 0.00000             
O1    shel 0.9647106 0.5257115 0.2991078 -3.7339570 1.00000 0.00000             
O1    shel 0.9642567 0.5256776 0.6322885 -3.7339570 1.00000 0.00000             
O1    shel 0.9643932 0.5258859 0.9656632 -3.7339570 1.00000 0.00000             
O1    shel 0.9650712 0.8596368 0.2986798 -3.7339570 1.00000 0.00000             
O1    shel 0.9643633 0.8592344 0.6322544 -3.7339570 1.00000 0.00000             
O1    shel 0.9646781 0.8594832 0.9654947 -3.7339570 1.00000 0.00000             
O1    shel 0.0446836 0.2323744 0.1454003 -3.7339570 1.00000 0.00000             
O1    shel 0.0441767 0.2321707 0.4786845 -3.7339570 1.00000 0.00000             
O1    shel 0.0443576 0.2324124 0.8121375 -3.7339570 1.00000 0.00000             
O1    shel 0.0445639 0.5660041 0.1455040 -3.7339570 1.00000 0.00000             
O1    shel 0.0441185 0.5655044 0.4787092 -3.7339570 1.00000 0.00000             
O1    shel 0.0442755 0.5657888 0.8121106 -3.7339570 1.00000 0.00000             
O1    shel 0.0460770 0.8999712 0.1453175 -3.7339570 1.00000 0.00000             
O1    shel 0.0443423 0.8989634 0.4786913 -3.7339570 1.00000 0.00000             
O1    shel 0.0445096 0.8991695 0.8120056 -3.7339570 1.00000 0.00000             
O1    shel 0.3784536 0.2329340 0.1456116 -3.7339570 1.00000 0.00000             
O1    shel 0.3776857 0.2323000 0.4787203 -3.7339570 1.00000 0.00000             
O1    shel 0.3778245 0.2324629 0.8119153 -3.7339570 1.00000 0.00000             
O1    shel 0.3778736 0.5659436 0.1454637 -3.7339570 1.00000 0.00000             
O1    shel 0.3775076 0.5655908 0.4787120 -3.7339570 1.00000 0.00000             
O1    shel 0.3776372 0.5659469 0.8121232 -3.7339570 1.00000 0.00000             
O1    shel 0.3779437 0.8993316 0.1455146 -3.7339570 1.00000 0.00000             
O1    shel 0.3775475 0.8988401 0.4787549 -3.7339570 1.00000 0.00000             
O1    shel 0.3777498 0.8990821 0.8119910 -3.7339570 1.00000 0.00000             
O1    shel 0.7112240 0.2326124 0.1454989 -3.7339570 1.00000 0.00000             
O1    shel 0.7108428 0.2320445 0.4786490 -3.7339570 1.00000 0.00000             
O1    shel 0.7109901 0.2324100 0.8120530 -3.7339570 1.00000 0.00000             
O1    shel 0.7116181 0.5664231 0.1455361 -3.7339570 1.00000 0.00000             
O1    shel 0.7109463 0.5657208 0.4787305 -3.7339570 1.00000 0.00000             
O1    shel 0.7110987 0.5659115 0.8120792 -3.7339570 1.00000 0.00000             
O1    shel 0.7112925 0.8993002 0.1454548 -3.7339570 1.00000 0.00000             
O1    shel 0.7109129 0.8988042 0.4786526 -3.7339570 1.00000 0.00000             
O1    shel 0.7110641 0.8992141 0.8121370 -3.7339570 1.00000 0.00000             
O1    shel 0.1981705 0.2926287 0.0341718 -3.7339570 1.00000 0.00000             
O1    shel 0.1980654 0.2921853 0.3676646 -3.7339570 1.00000 0.00000             
O1    shel 0.1978659 0.2923510 0.7009145 -3.7339570 1.00000 0.00000             
O1    shel 0.1979624 0.6257272 0.0342950 -3.7339570 1.00000 0.00000             
O1    shel 0.1979416 0.6253974 0.3676668 -3.7339570 1.00000 0.00000             
O1    shel 0.1977488 0.6255616 0.7008622 -3.7339570 1.00000 0.00000             
O1    shel 0.1994609 0.9596684 0.0342195 -3.7339570 1.00000 0.00000             
O1    shel 0.1982578 0.9588968 0.3677624 -3.7339570 1.00000 0.00000             
O1    shel 0.1980706 0.9590681 0.7009498 -3.7339570 1.00000 0.00000             
O1    shel 0.5316462 0.2926299 0.0342208 -3.7339570 1.00000 0.00000             
O1    shel 0.5318566 0.2923633 0.3679385 -3.7339570 1.00000 0.00000             
O1    shel 0.5314548 0.2924811 0.7009222 -3.7339570 1.00000 0.00000             
O1    shel 0.5313682 0.6259386 0.0342243 -3.7339570 1.00000 0.00000             
O1    shel 0.5313432 0.6255129 0.3676744 -3.7339570 1.00000 0.00000             
O1    shel 0.5312038 0.6257918 0.7009655 -3.7339570 1.00000 0.00000             
O1    shel 0.5314144 0.9591668 0.0342864 -3.7339570 1.00000 0.00000             
O1    shel 0.5313975 0.9587604 0.3677067 -3.7339570 1.00000 0.00000             