opti conv qok
stepmx     0.01
maxcyc opt 5000
cell
  14.54793  14.54793  16.07712  90.00002  90.00000 120.00000
fractional
Si   core    0.15607   0.00000   0.11111
Si   core    0.15607   0.00000   0.44444
Si   core    0.15607   0.00000   0.77778
Si   core    0.15607   0.33334   0.11111
Si   core    0.15607   0.33334   0.44444
Si   core    0.15607   0.33334   0.77778
Si   core    0.15607   0.66666   0.11111
Si   core    0.15607   0.66666   0.44444
Si   core    0.15607   0.66666   0.77778
Si   core    0.48940   0.00000   0.11111
Si   core    0.48940   0.00000   0.44444
Si   core    0.48940   0.00000   0.77778
Si   core    0.48940   0.33334   0.11111
Si   core    0.48940   0.33334   0.44444
Si   core    0.48940   0.33334   0.77778
Si   core    0.48940   0.66666   0.11111
Si   core    0.48940   0.66666   0.44444
Si   core    0.48940   0.66666   0.77778
Si   core    0.82273   0.00000   0.11111
Si   core    0.82273   0.00000   0.44444
Si   core    0.82273   0.00000   0.77778
Si   core    0.82273   0.33334   0.11111
Si   core    0.82273   0.33334   0.44444
Si   core    0.82273   0.33334   0.77778
Si   core    0.82273   0.66666   0.11111
Si   core    0.82273   0.66666   0.44444
Si   core    0.82273   0.66666   0.77778
Si   core    0.00124   0.15482   0.22222
Si   core    0.00124   0.15482   0.55556
Si   core    0.00124   0.15482   0.88889
Si   core    0.00124   0.48815   0.22222
Si   core    0.00124   0.48815   0.55556
Si   core    0.00124   0.48815   0.88889
Si   core    0.00124   0.82149   0.22222
Si   core    0.00124   0.82149   0.55556
Si   core    0.00124   0.82149   0.88889
Si   core    0.33458   0.15482   0.22222
Si   core    0.33458   0.15482   0.55556
Si   core    0.33458   0.15482   0.88889
Si   core    0.33458   0.48815   0.22222
Si   core    0.33458   0.48815   0.55556
Si   core    0.33458   0.48815   0.88889
Si   core    0.33458   0.82149   0.22222
Si   core    0.33458   0.82149   0.55556
Si   core    0.33458   0.82149   0.88889
Si   core    0.66792   0.15482   0.22222
Si   core    0.66792   0.15482   0.55556
Si   core    0.66792   0.15482   0.88889
Si   core    0.66792   0.48815   0.22222
Si   core    0.66792   0.48815   0.55556
Si   core    0.66792   0.48815   0.88889
Si   core    0.66792   0.82149   0.22222
Si   core    0.66792   0.82149   0.55556
Si   core    0.66792   0.82149   0.88889
Si   core    0.17976   0.17851   0.33334
Si   core    0.17976   0.17851   0.66666
Si   core    0.17976   0.17851   0.00000
Si   core    0.17976   0.51185   0.33334
Si   core    0.17976   0.51185   0.66666
Si   core    0.17976   0.51185   0.00000
Si   core    0.17976   0.84518   0.33334
Si   core    0.17976   0.84518   0.66666
Si   core    0.17976   0.84518   0.00000
Si   core    0.51309   0.17851   0.33334
Si   core    0.51309   0.17851   0.66666
Si   core    0.51309   0.17851   0.00000
Si   core    0.51309   0.51185   0.33334
Si   core    0.51309   0.51185   0.66666
Si   core    0.51309   0.51185   0.00000
Si   core    0.51309   0.84518   0.33334
Si   core    0.51309   0.84518   0.66666
Si   core    0.51309   0.84518   0.00000
Si   core    0.84643   0.17851   0.33334
Si   core    0.84643   0.17851   0.66666
Si   core    0.84643   0.17851   0.00000
Si   core    0.84643   0.51185   0.33334
Si   core    0.84643   0.51185   0.66666
Si   core    0.84643   0.51185   0.00000
Si   core    0.84643   0.84518   0.33334
Si   core    0.84643   0.84518   0.66666
Si   core    0.84643   0.84518   0.00000
O2   core    0.13749   0.09247   0.07458
O2   core    0.13749   0.09247   0.40791
O2   core    0.13749   0.09247   0.74124
O2   core    0.13749   0.42580   0.07458
O2   core    0.13749   0.42580   0.40791
O2   core    0.13749   0.42580   0.74124
O2   core    0.13749   0.75913   0.07458
O2   core    0.13749   0.75913   0.40791
O2   core    0.13749   0.75913   0.74124
O2   core    0.47083   0.09247   0.07458
O2   core    0.47083   0.09247   0.40791
O2   core    0.47083   0.09247   0.74124
O2   core    0.47083   0.42580   0.07458
O2   core    0.47083   0.42580   0.40791
O2   core    0.47083   0.42580   0.74124
O2   core    0.47083   0.75913   0.07458
O2   core    0.47083   0.75913   0.40791
O2   core    0.47083   0.75913   0.74124
O2   core    0.80415   0.09247   0.07458
O2   core    0.80415   0.09247   0.40791
O2   core    0.80415   0.09247   0.74124
O2   core    0.80415   0.42580   0.07458
O2   core    0.80415   0.42580   0.40791
O2   core    0.80415   0.42580   0.74124
O2   core    0.80415   0.75913   0.07458
O2   core    0.80415   0.75913   0.40791
O2   core    0.80415   0.75913   0.74124
O2   core    0.24211   0.04378   0.18569
O2   core    0.24211   0.04378   0.51902
O2   core    0.24211   0.04378   0.85236
O2   core    0.24211   0.37711   0.18569
O2   core    0.24211   0.37711   0.51902
O2   core    0.24211   0.37711   0.85236
O2   core    0.24211   0.71045   0.18569
O2   core    0.24211   0.71045   0.51902
O2   core    0.24211   0.71045   0.85236
O2   core    0.57545   0.04378   0.18569
O2   core    0.57545   0.04378   0.51902
O2   core    0.57545   0.04378   0.85236
O2   core    0.57545   0.37711   0.18569
O2   core    0.57545   0.37711   0.51902
O2   core    0.57545   0.37711   0.85236
O2   core    0.57545   0.71045   0.18569
O2   core    0.57545   0.71045   0.51902
O2   core    0.57545   0.71045   0.85236
O2   core    0.90878   0.04378   0.18569
O2   core    0.90878   0.04378   0.51902
O2   core    0.90878   0.04378   0.85236
O2   core    0.90878   0.37711   0.18569
O2   core    0.90878   0.37711   0.51902
O2   core    0.90878   0.37711   0.85236
O2   core    0.90878   0.71045   0.18569
O2   core    0.90878   0.71045   0.51902
O2   core    0.90878   0.71045   0.85236
O2   core    0.29080   0.19709   0.29680
O2   core    0.29080   0.19709   0.63013
O2   core    0.29080   0.19709   0.96347
O2   core    0.29080   0.53043   0.29680
O2   core    0.29080   0.53043   0.63013
O2   core    0.29080   0.53043   0.96347
O2   core    0.29080   0.86375   0.29680
O2   core    0.29080   0.86375   0.63013
O2   core    0.29080   0.86375   0.96347
O2   core    0.62413   0.19709   0.29680
O2   core    0.62413   0.19709   0.63013
O2   core    0.62413   0.19709   0.96347
O2   core    0.62413   0.53043   0.29680
O2   core    0.62413   0.53043   0.63013
O2   core    0.62413   0.53043   0.96347
O2   core    0.62413   0.86375   0.29680
O2   core    0.62413   0.86375   0.63013
O2   core    0.62413   0.86375   0.96347
O2   core    0.95747   0.19709   0.29680
O2   core    0.95747   0.19709   0.63013
O2   core    0.95747   0.19709   0.96347
O2   core    0.95747   0.53043   0.29680
O2   core    0.95747   0.53043   0.63013
O2   core    0.95747   0.53043   0.96347
O2   core    0.95747   0.86375   0.29680
O2   core    0.95747   0.86375   0.63013
O2   core    0.95747   0.86375   0.96347
O2   core    0.04502   0.24087   0.14764
O2   core    0.04502   0.24087   0.48098
O2   core    0.04502   0.24087   0.81431
O2   core    0.04502   0.57420   0.14764
O2   core    0.04502   0.57420   0.48098
O2   core    0.04502   0.57420   0.81431
O2   core    0.04502   0.90753   0.14764
O2   core    0.04502   0.90753   0.48098
O2   core    0.04502   0.90753   0.81431
O2   core    0.37836   0.24087   0.14764
O2   core    0.37836   0.24087   0.48098
O2   core    0.37836   0.24087   0.81431
O2   core    0.37836   0.57420   0.14764
O2   core    0.37836   0.57420   0.48098
O2   core    0.37836   0.57420   0.81431
O2   core    0.37836   0.90753   0.14764
O2   core    0.37836   0.90753   0.48098
O2   core    0.37836   0.90753   0.81431
O2   core    0.71169   0.24087   0.14764
O2   core    0.71169   0.24087   0.48098
O2   core    0.71169   0.24087   0.81431
O2   core    0.71169   0.57420   0.14764
O2   core    0.71169   0.57420   0.48098
O2   core    0.71169   0.57420   0.81431
O2   core    0.71169   0.90753   0.14764
O2   core    0.71169   0.90753   0.48098
O2   core    0.71169   0.90753   0.81431
O2   core    0.19833   0.28955   0.03653
O2   core    0.19833   0.28955   0.36987
O2   core    0.19833   0.28955   0.70320
O2   core    0.19833   0.62289   0.03653
O2   core    0.19833   0.62289   0.36987
O2   core    0.19833   0.62289   0.70320
O2   core    0.19833   0.95622   0.03653
O2   core    0.19833   0.95622   0.36987
O2   core    0.19833   0.95622   0.70320
O2   core    0.53167   0.28955   0.03653
O2   core    0.53167   0.28955   0.36987
O2   core    0.53167   0.28955   0.70320
O2   core    0.53167   0.62289   0.03653
O2   core    0.53167   0.62289   0.36987
O2   core    0.53167   0.62289   0.70320
O2   core    0.53167   0.95622   0.03653
O2   core    0.53167   0.95622   0.36987
O2   core    0.53167   0.95622   0.70320
O2   core    0.86500   0.28955   0.03653
O2   core    0.86500   0.28955   0.36987
O2   core    0.86500   0.28955   0.70320
O2   core    0.86500   0.62289   0.03653
O2   core    0.86500   0.62289   0.36987
O2   core    0.86500   0.62289   0.70320
O2   core    0.86500   0.95622   0.03653
O2   core    0.86500   0.95622   0.36987
O2   core    0.86500   0.95622   0.70320
O2   core    0.09371   0.13625   0.25876
O2   core    0.09371   0.13625   0.59209
O2   core    0.09371   0.13625   0.92542
O2   core    0.09371   0.46957   0.25876
O2   core    0.09371   0.46957   0.59209
O2   core    0.09371   0.46957   0.92542
O2   core    0.09371   0.80291   0.25876
O2   core    0.09371   0.80291   0.59209
O2   core    0.09371   0.80291   0.92542
O2   core    0.42704   0.13625   0.25876
O2   core    0.42704   0.13625   0.59209
O2   core    0.42704   0.13625   0.92542
O2   core    0.42704   0.46957   0.25876
O2   core    0.42704   0.46957   0.59209
O2   core    0.42704   0.46957   0.92542
O2   core    0.42704   0.80291   0.25876
O2   core    0.42704   0.80291   0.59209
O2   core    0.42704   0.80291   0.92542
O2   core    0.76038   0.13625   0.25876
O2   core    0.76038   0.13625   0.59209
O2   core    0.76038   0.13625   0.92542
O2   core    0.76038   0.46957   0.25876
O2   core    0.76038   0.46957   0.59209
O2   core    0.76038   0.46957   0.92542
O2   core    0.76038   0.80291   0.25876
O2   core    0.76038   0.80291   0.59209
O2   core    0.76038   0.80291   0.92542
species
Si    core  4.00000
O1    core  1.733957
O1    shel -3.733957
O2    core  0.870733
O2    shel -2.870733
O3    core  1.330431
O3    shel -3.330431
F     core  0.56
F     shel -1.56
Ge    core  4.0
buck
Si core    O1 shel     1315.2478 0.317759 10.141118 0.0 16.0
Si core    O2 shel     1315.2478 0.317759 10.141118 0.0 16.0
Si core    O3 shel     1315.2478 0.317759 10.141118 0.0 16.0
Ge core    O1 shel     1497.3996 0.325646 16.808599 0.0 16.0
Ge core    O2 shel     1497.3996 0.325646 16.808599 0.0 16.0
Ge core    O3 shel     1497.3996 0.325646 16.808599 0.0 16.0
O1 shel    O1 shel    22764.0000 0.149000 10.937044 0.0 16.0
O1 shel    O2 shel    22764.0000 0.149000 10.937044 0.0 16.0
O1 shel    O3 shel    22764.0000 0.149000 10.937044 0.0 16.0
O2 shel    O2 shel    22764.0000 0.149000 10.937044 0.0 16.0
O2 shel    O3 shel    22764.0000 0.149000 10.937044 0.0 16.0
O3 shel    O3 shel    22764.0000 0.149000 10.937044 0.0 16.0
Si core     F shel     976.82887 0.282000 0.0       0.0 16.0
Ge core     F shel     681.47288 0.320000 0.0       0.0 16.0
F  shel     F shel     540.39761 0.262490 0.0       0.0 16.0
O1 shel     F shel    1675.00000 0.268000 0.0       0.0 16.0
O2 shel     F shel    1675.00000 0.268000 0.0       0.0 16.0
O3 shel     F shel    1675.00000 0.268000 0.0       0.0 16.0
spring
O2     75.969800
O3    128.142790
O1    180.315770
F      33.452757
three
Si core O1 shel O1 shel 1.2614 109.47 1.9 1.9 3.5
Si core O1 shel O2 shel 1.2614 109.47 1.9 1.9 3.5
Si core O2 shel O2 shel 1.2614 109.47 1.9 1.9 3.5
cutp             16.0 1.0
cuts 0.8
output cif out.cif
dump every 1     out.res
