single conv qok
cell
 11.90210  11.90210  29.69200  90.00000  90.00000 120.00000
fractional
 Ge  core  0.699599981      0.375699997       3.38900015E-02
 Ge  core  0.624300003      0.323900014      0.367223412    
 Ge  core  0.676100016      0.300399989      0.700556695    
 Ge  core  0.300399989      0.624300003      0.533890009    
 Ge  core  0.375699997      0.676100016      0.867223322    
 Ge  core  0.323900014      0.699599981      0.200556695    
 Ge  core  0.375699997      0.699599981      0.299443305    
 Ge  core  0.323900014      0.624300003      0.966109991    
 Ge  core  0.300399989      0.676100016      0.632776678    
 Ge  core  0.624300003      0.300399989      0.799443305    
 Ge  core  0.676100016      0.375699997      0.466109991    
 Si  core  0.699599981      0.323900014      0.132776707    
 Si  core  0.530300021      0.413399994      0.966870010    
 Si  core  0.586600006      0.116899997      0.300203294    
 Si  core  0.883099973      0.469700009      0.633536696    
 Si  core  0.469700009      0.586600006      0.466870099    
 Si  core  0.413399994      0.883099973      0.800203323    
 Si  core  0.116899997      0.530300021      0.133536696    
 Si  core  0.413399994      0.530300021      0.366463304    
 Si  core  0.116899997      0.586600006       3.31300013E-02
 Si  core  0.469700009      0.883099973      0.699796677    
 Si  core  0.586600006      0.469700009      0.866463304    
 Si  core  0.883099973      0.413399994      0.533129990    
 Si  core  0.530300021      0.116899997      0.199796706    
 Si  core  0.298799992      0.394300014      0.851189971    
 Si  core  0.605700016      0.904500008      0.184523299    
 Si  core   9.54999998E-02  0.701200008      0.517856598    
 Si  core  0.701200008      0.605700016      0.351190001    
 Si  core  0.394300014       9.54999998E-02  0.684523284    
 Si  core  0.904500008      0.298799992       1.78565998E-02
 Si  core  0.394300014      0.298799992      0.482143402    
 Si  core  0.904500008      0.605700016      0.148809999    
 Si  core  0.701200008       9.54999998E-02  0.815476716    
 Si  core  0.605700016      0.701200008      0.982143283    
 Si  core   9.54999998E-02  0.394300014      0.648810029    
 Si  core  0.298799992      0.904500008      0.315476686    
 Si  core  0.248500004      0.334899992      0.952099979    
 Si  core  0.665099978      0.913600028      0.285433292    
 Si  core   8.64000022E-02  0.751500010      0.618766725    
 Si  core  0.751500010      0.665099978      0.452100009    
 Si  core  0.334899992       8.64000022E-02  0.785433292    
 Si  core  0.913600028      0.248500004      0.118766703    
 Si  core  0.334899992      0.248500004      0.381233305    
 Si  core  0.913600028      0.665099978       4.78999987E-02
 Si  core  0.751500010       8.64000022E-02  0.714566708    
 Si  core  0.665099978      0.751500010      0.881233275    
 Si  core   8.64000022E-02  0.334899992      0.547900021    
 Si  core  0.248500004      0.913600028      0.214566693    
 Ge  core  0.970200002      0.122900002      0.966970026    
 Si  core  0.877099991      0.847299993      0.300303310    
 Si  core  0.152700007       2.97999997E-02  0.633636713    
 Ge  core   2.97999997E-02  0.877099991      0.466969997    
 Ge  core  0.122900002      0.152700007      0.800303280    
 Ge  core  0.847299993      0.970200002      0.133636698    
 Ge  core  0.122900002      0.970200002      0.366363287    
 Si  core  0.847299993      0.877099991       3.30299996E-02
 Si  core   2.97999997E-02  0.152700007      0.699696720    
 Ge  core  0.877099991       2.97999997E-02  0.866363287    
 Si  core  0.152700007      0.122900002      0.533029974    
 Ge  core  0.970200002      0.847299993      0.199696705    
