single noenergy
cell
   11.9021     11.9021     29.6920     90.0000     90.0000    120.0000
 frac 
Si   core    0.6996000    0.3757000    0.0338900
Si   core    0.6243000    0.3239000    0.3672234
Si   core    0.6761000    0.3004000    0.7005567
Si   core    0.3004000    0.6243000    0.5338900
Si   core    0.3757000    0.6761000    0.8672233
Si   core    0.3239000    0.6996000    0.2005567
Si   core    0.3757000    0.6996000    0.2994433
Si   core    0.3239000    0.6243000    0.9661100
Si   core    0.3004000    0.6761000    0.6327767
Si   core    0.6243000    0.3004000    0.7994433
Si   core    0.6761000    0.3757000    0.4661100
Si   core    0.6996000    0.3239000    0.1327767
Si   core    0.5303000    0.4134000    0.9668700
Si   core    0.5866000    0.1169000    0.3002033
Si   core    0.8831000    0.4697000    0.6335367
Si   core    0.4697000    0.5866000    0.4668701
Si   core    0.4134000    0.8831000    0.8002033
Si   core    0.1169000    0.5303000    0.1335367
Si   core    0.4134000    0.5303000    0.3664633
Si   core    0.1169000    0.5866000    0.0331300
Si   core    0.4697000    0.8831000    0.6997967
Si   core    0.5866000    0.4697000    0.8664633
Si   core    0.8831000    0.4134000    0.5331300
Si   core    0.5303000    0.1169000    0.1997967
Si   core    0.2988000    0.3943000    0.8511900
Si   core    0.6057000    0.9045000    0.1845233
Si   core    0.0955000    0.7012000    0.5178566
Si   core    0.7012000    0.6057000    0.3511900
Si   core    0.3943000    0.0955000    0.6845233
Si   core    0.9045000    0.2988000    0.0178566
Si   core    0.3943000    0.2988000    0.4821434
Si   core    0.9045000    0.6057000    0.1488100
Si   core    0.7012000    0.0955000    0.8154767
Si   core    0.6057000    0.7012000    0.9821433
Si   core    0.0955000    0.3943000    0.6488100
Si   core    0.2988000    0.9045000    0.3154767
Si   core    0.2485000    0.3349000    0.9521000
Si   core    0.6651000    0.9136000    0.2854333
Si   core    0.0864000    0.7515000    0.6187667
Si   core    0.7515000    0.6651000    0.4521000
Si   core    0.3349000    0.0864000    0.7854333
Si   core    0.9136000    0.2485000    0.1187667
Si   core    0.3349000    0.2485000    0.3812333
Si   core    0.9136000    0.6651000    0.0479000
Si   core    0.7515000    0.0864000    0.7145667
Si   core    0.6651000    0.7515000    0.8812333
Si   core    0.0864000    0.3349000    0.5479000
Si   core    0.2485000    0.9136000    0.2145667
Si   core    0.9702000    0.1229000    0.9669700
Si   core    0.8771000    0.8473000    0.3003033
Si   core    0.1527000    0.0298000    0.6336367
Si   core    0.0298000    0.8771000    0.4669700
Si   core    0.1229000    0.1527000    0.8003033
Si   core    0.8473000    0.9702000    0.1336367
Si   core    0.1229000    0.9702000    0.3663633
Si   core    0.8473000    0.8771000    0.0330300
Si   core    0.0298000    0.1527000    0.6996967
Si   core    0.8771000    0.0298000    0.8663633
Si   core    0.1527000    0.1229000    0.5330300
Si   core    0.9702000    0.8473000    0.1996967
O    core    0.9240000    0.0000000    0.0000000
O    shel    0.9240000    0.0000000    0.0000000
O    core    0.0000000    0.9240000    0.3333333
O    shel    0.0000000    0.9240000    0.3333333
O    core    0.0760000    0.0760000    0.6666667
O    shel    0.0760000    0.0760000    0.6666667
O    core    0.0760000    0.0000000    0.5000000
O    shel    0.0760000    0.0000000    0.5000000
O    core    0.0000000    0.0760000    0.8333333
O    shel    0.0000000    0.0760000    0.8333333
O    core    0.9240000    0.9240000    0.1666667
O    shel    0.9240000    0.9240000    0.1666667
O    core    0.3364000    0.5810000    0.3325700
O    shel    0.3364000    0.5810000    0.3325700
O    core    0.4190000    0.7554001    0.6659033
O    shel    0.4190000    0.7554001    0.6659033
O    core    0.2446000    0.6636000    0.9992367
O    shel    0.2446000    0.6636000    0.9992367
O    core    0.6636000    0.4190000    0.8325700
O    shel    0.6636000    0.4190000    0.8325700
O    core    0.5810000    0.2446000    0.1659033
O    shel    0.5810000    0.2446000    0.1659033
O    core    0.7554001    0.3364000    0.4992366
O    shel    0.7554001    0.3364000    0.4992366
O    core    0.5810000    0.3364000    0.0007634
O    shel    0.5810000    0.3364000    0.0007634
O    core    0.7554001    0.4190000    0.6674300
O    shel    0.7554001    0.4190000    0.6674300
O    core    0.6636000    0.2446000    0.3340967
O    shel    0.6636000    0.2446000    0.3340967
O    core    0.4190000    0.6636000    0.5007633
O    shel    0.4190000    0.6636000    0.5007633
O    core    0.2446000    0.5810000    0.1674300
O    shel    0.2446000    0.5810000    0.1674300
O    core    0.3364000    0.7554001    0.8340967
O    shel    0.3364000    0.7554001    0.8340967
O    core    0.1311000    0.2142000    0.9718400
O    shel    0.1311000    0.2142000    0.9718400
O    core    0.7858000    0.9169000    0.3051734
O    shel    0.7858000    0.9169000    0.3051734
O    core    0.0831000    0.8689000    0.6385067
O    shel    0.0831000    0.8689000    0.6385067
O    core    0.8689000    0.7858000    0.4718400
O    shel    0.8689000    0.7858000    0.4718400
O    core    0.2142000    0.0831000    0.8051734
O    shel    0.2142000    0.0831000    0.8051734
O    core    0.9169000    0.1311000    0.1385067
O    shel    0.9169000    0.1311000    0.1385067
O    core    0.2142000    0.1311000    0.3614933
O    shel    0.2142000    0.1311000    0.3614933
O    core    0.9169000    0.7858000    0.0281600
O    shel    0.9169000    0.7858000    0.0281600
O    core    0.8689000    0.0831000    0.6948267
O    shel    0.8689000    0.0831000    0.6948267
O    core    0.7858000    0.8689000    0.8614933
O    shel    0.7858000    0.8689000    0.8614933
O    core    0.0831000    0.2142000    0.5281600
O    shel    0.0831000    0.2142000    0.5281600
O    core    0.1311000    0.9169000    0.1948267
O    shel    0.1311000    0.9169000    0.1948267
O    core    0.9288000    0.8576000    0.2500000
O    shel    0.9288000    0.8576000    0.2500000
O    core    0.1424000    0.0712000    0.5833334
O    shel    0.1424000    0.0712000    0.5833334
O    core    0.9288000    0.0712000    0.9166667
O    shel    0.9288000    0.0712000    0.9166667
O    core    0.0712000    0.1424000    0.7500000
O    shel    0.0712000    0.1424000    0.7500000
O    core    0.8576000    0.9288000    0.0833333
O    shel    0.8576000    0.9288000    0.0833333
O    core    0.0712000    0.9288000    0.4166667
O    shel    0.0712000    0.9288000    0.4166667
O    core    0.8982000    0.2036000    0.9786500
O    shel    0.8982000    0.2036000    0.9786500
O    core    0.7964000    0.6946000    0.3119833
O    shel    0.7964000    0.6946000    0.3119833
O    core    0.3054000    0.1018000    0.6453166
O    shel    0.3054000    0.1018000    0.6453166
O    core    0.1018000    0.7964000    0.4786500
O    shel    0.1018000    0.7964000    0.4786500
O    core    0.2036000    0.3054000    0.8119833
O    shel    0.2036000    0.3054000    0.8119833
O    core    0.6946000    0.8982000    0.1453166
O    shel    0.6946000    0.8982000    0.1453166
O    core    0.2036000    0.8982000    0.3546834
O    shel    0.2036000    0.8982000    0.3546834
O    core    0.6946000    0.7964000    0.0213500
O    shel    0.6946000    0.7964000    0.0213500
O    core    0.1018000    0.3054000    0.6880167
O    shel    0.1018000    0.3054000    0.6880167
O    core    0.7964000    0.1018000    0.8546833
O    shel    0.7964000    0.1018000    0.8546833
O    core    0.3054000    0.2036000    0.5213500
O    shel    0.3054000    0.2036000    0.5213500
O    core    0.8982000    0.6946000    0.1880167
O    shel    0.8982000    0.6946000    0.1880167
O    core    0.3187000    0.6376000    0.2500000
O    shel    0.3187000    0.6376000    0.2500000
O    core    0.3624000    0.6811000    0.5833334
O    shel    0.3624000    0.6811000    0.5833334
O    core    0.3189000    0.6813000    0.9166667
O    shel    0.3189000    0.6813000    0.9166667
O    core    0.6813000    0.3624000    0.7500000
O    shel    0.6813000    0.3624000    0.7500000
O    core    0.6376000    0.3189000    0.0833333
O    shel    0.6376000    0.3189000    0.0833333
O    core    0.6811000    0.3187000    0.4166667
O    shel    0.6811000    0.3187000    0.4166667
O    core    0.3703000    0.3263000    0.9689800
O    shel    0.3703000    0.3263000    0.9689800
O    core    0.6737000    0.0440000    0.3023133
O    shel    0.6737000    0.0440000    0.3023133
O    core    0.9560000    0.6297000    0.6356467
O    shel    0.9560000    0.6297000    0.6356467
O    core    0.6297000    0.6737000    0.4689801
O    shel    0.6297000    0.6737000    0.4689801
O    core    0.3263000    0.9560000    0.8023133
O    shel    0.3263000    0.9560000    0.8023133
O    core    0.0440000    0.3703000    0.1356467
O    shel    0.0440000    0.3703000    0.1356467
O    core    0.3263000    0.3703000    0.3643533
O    shel    0.3263000    0.3703000    0.3643533
O    core    0.0440000    0.6737000    0.0310200
O    shel    0.0440000    0.6737000    0.0310200
O    core    0.6297000    0.9560000    0.6976867
O    shel    0.6297000    0.9560000    0.6976867
O    core    0.6737000    0.6297000    0.8643533
O    shel    0.6737000    0.6297000    0.8643533
O    core    0.9560000    0.3263000    0.5310200
O    shel    0.9560000    0.3263000    0.5310200
O    core    0.3703000    0.0440000    0.1976867
O    shel    0.3703000    0.0440000    0.1976867
O    core    0.7694000    0.3002000    0.0113500
O    shel    0.7694000    0.3002000    0.0113500
O    core    0.6998000    0.4692000    0.3446833
O    shel    0.6998000    0.4692000    0.3446833
O    core    0.5308000    0.2306000    0.6780167
O    shel    0.5308000    0.2306000    0.6780167
O    core    0.2306000    0.6998000    0.5113500
O    shel    0.2306000    0.6998000    0.5113500
O    core    0.3002000    0.5308000    0.8446833
O    shel    0.3002000    0.5308000    0.8446833
O    core    0.4692000    0.7694000    0.1780167
O    shel    0.4692000    0.7694000    0.1780167
O    core    0.3002000    0.7694000    0.3219833
O    shel    0.3002000    0.7694000    0.3219833
O    core    0.4692000    0.6998000    0.9886500
O    shel    0.4692000    0.6998000    0.9886500
O    core    0.2306000    0.5308000    0.6553167
O    shel    0.2306000    0.5308000    0.6553167
O    core    0.6998000    0.2306000    0.8219833
O    shel    0.6998000    0.2306000    0.8219833
O    core    0.5308000    0.3002000    0.4886500
O    shel    0.5308000    0.3002000    0.4886500
O    core    0.7694000    0.4692000    0.1553167
O    shel    0.7694000    0.4692000    0.1553167
O    core    0.7877000    0.5291000    0.0309600
O    shel    0.7877000    0.5291000    0.0309600
O    core    0.4709000    0.2586000    0.3642933
O    shel    0.4709000    0.2586000    0.3642933
O    core    0.7414000    0.2123000    0.6976267
O    shel    0.7414000    0.2123000    0.6976267
O    core    0.2123000    0.4709000    0.5309600
O    shel    0.2123000    0.4709000    0.5309600
O    core    0.5291000    0.7414000    0.8642933
O    shel    0.5291000    0.7414000    0.8642933
O    core    0.2586000    0.7877000    0.1976267
O    shel    0.2586000    0.7877000    0.1976267
O    core    0.5291000    0.7877000    0.3023733
O    shel    0.5291000    0.7877000    0.3023733
O    core    0.2586000    0.4709000    0.9690400
O    shel    0.2586000    0.4709000    0.9690400
O    core    0.2123000    0.7414000    0.6357067
O    shel    0.2123000    0.7414000    0.6357067
O    core    0.4709000    0.2123000    0.8023733
O    shel    0.4709000    0.2123000    0.8023733
O    core    0.7414000    0.5291000    0.4690400
O    shel    0.7414000    0.5291000    0.4690400
O    core    0.7877000    0.2586000    0.1357067
O    shel    0.7877000    0.2586000    0.1357067
O    core    0.2338000    0.3225000    0.8986700
O    shel    0.2338000    0.3225000    0.8986700
O    core    0.6775000    0.9113000    0.2320033
O    shel    0.6775000    0.9113000    0.2320033
O    core    0.0887000    0.7662000    0.5653367
O    shel    0.0887000    0.7662000    0.5653367
O    core    0.7662000    0.6775000    0.3986700
O    shel    0.7662000    0.6775000    0.3986700
O    core    0.3225000    0.0887000    0.7320033
O    shel    0.3225000    0.0887000    0.7320033
O    core    0.9113000    0.2338000    0.0653367
O    shel    0.9113000    0.2338000    0.0653367
O    core    0.3225000    0.2338000    0.4346633
O    shel    0.3225000    0.2338000    0.4346633
O    core    0.9113000    0.6775000    0.1013300
O    shel    0.9113000    0.6775000    0.1013300
O    core    0.7662000    0.0887000    0.7679967
O    shel    0.7662000    0.0887000    0.7679967
O    core    0.6775000    0.7662000    0.9346633
O    shel    0.6775000    0.7662000    0.9346633
O    core    0.0887000    0.3225000    0.6013300
O    shel    0.0887000    0.3225000    0.6013300
O    core    0.2338000    0.9113000    0.2679967
O    shel    0.2338000    0.9113000    0.2679967
O    core    0.5859000    0.5592000    0.9883400
O    shel    0.5859000    0.5592000    0.9883400
O    core    0.4408000    0.0267000    0.3216734
O    shel    0.4408000    0.0267000    0.3216734
O    core    0.9733000    0.4141000    0.6550066
O    shel    0.9733000    0.4141000    0.6550066
O    core    0.4141000    0.4408000    0.4883400
O    shel    0.4141000    0.4408000    0.4883400
O    core    0.5592000    0.9733000    0.8216734
O    shel    0.5592000    0.9733000    0.8216734
O    core    0.0267000    0.5859000    0.1550066
O    shel    0.0267000    0.5859000    0.1550066
O    core    0.5592000    0.5859000    0.3449934
O    shel    0.5592000    0.5859000    0.3449934
O    core    0.0267000    0.4408000    0.0116600
O    shel    0.0267000    0.4408000    0.0116600
O    core    0.4141000    0.9733000    0.6783267
O    shel    0.4141000    0.9733000    0.6783267
O    core    0.4408000    0.4141000    0.8449933
O    shel    0.4408000    0.4141000    0.8449933
O    core    0.9733000    0.5592000    0.5116600
O    shel    0.9733000    0.5592000    0.5116600
O    core    0.5859000    0.0267000    0.1783267
O    shel    0.5859000    0.0267000    0.1783267
O    core    0.5856000    0.1713000    0.2500000
O    shel    0.5856000    0.1713000    0.2500000
O    core    0.8287000    0.4143000    0.5833334
O    shel    0.8287000    0.4143000    0.5833334
O    core    0.5857000    0.4144000    0.9166667
O    shel    0.5857000    0.4144000    0.9166667
O    core    0.4144000    0.8287000    0.7500000
O    shel    0.4144000    0.8287000    0.7500000
O    core    0.1713000    0.5857000    0.0833333
O    shel    0.1713000    0.5857000    0.0833333
O    core    0.4143000    0.5856000    0.4166667
O    shel    0.4143000    0.5856000    0.4166667
F    core    0.4510000    0.9020000    0.2500000
F    shel    0.4510000    0.9020000    0.2500000
F    core    0.0980000    0.5490000    0.5833334
F    shel    0.0980000    0.5490000    0.5833334
F    core    0.4510000    0.5490000    0.9166667
F    shel    0.4510000    0.5490000    0.9166667
F    core    0.5490000    0.0980000    0.7500000
F    shel    0.5490000    0.0980000    0.7500000
F    core    0.9020000    0.4510000    0.0833333
F    shel    0.9020000    0.4510000    0.0833333
F    core    0.5490000    0.4510000    0.4166667
F    shel    0.5490000    0.4510000    0.4166667
species
 cutp 16.0 1.0
 switch rfo gnorm 0.001
 stepmx 0.01
output xtl c0001   
output arc c0001   
